# ORCA input file
# AQx.out: Geometry 24
! B3LYP def2-TZVP def2/J RIJCOSX Grid4 TightSCF

%maxcore 6000
%tddft
  maxdim 5
  nroots 50
  end
%pal
  nprocs 6
  end


* xyz 0 1
   C        8.63700         2.72312         1.86103
   O        9.11167         1.60930         2.01041
   C        9.06700         3.93391         2.59534
   C       10.04815         4.01662         3.57467
   C       10.29866         5.26681         4.12638
   F       11.22362         5.41378         5.07138
   C        9.57537         6.39234         3.69130
   F        9.84642         7.57182         4.24341
   C        8.59093         6.30287         2.70914
   C        8.32617         5.04457         2.15226
   C        7.36196         4.58632         1.11554
   C        6.50374         5.42304         0.42002
   C        5.61264         4.97520        -0.60442
   N        4.87650         4.64506        -1.44218
   C        6.44219         6.83074         0.66004
   N        6.38485         7.97640         0.84849
   C        7.53278         3.14114         0.96641
   C        6.73785         2.28840         0.21618
   C        6.80881         0.90623        -0.06951
   S        8.18291        -0.15746         0.30992
   C        7.40394        -1.47215        -0.48466
   C        6.11374        -1.13977        -0.95563
   C        5.77836         0.21094        -0.76599
   C        4.53725         0.84900        -1.32886
   C        4.76245         1.35888        -2.76434
   S        5.25854        -2.53376        -1.64726
   C        6.65471        -3.53478        -1.31084
   C        7.71216        -2.82339        -0.72684
   N        8.78508        -3.66319        -0.49536
   C        9.89353        -3.21631         0.34600
   C       10.89790        -2.32461        -0.37917
   C        8.42847        -4.93537        -0.94158
   C        7.07220        -4.88302        -1.41367
   C        6.33480        -6.05592        -1.77691
   N        5.03250        -5.96789        -2.11008
   C        4.37149        -7.09270        -2.34084
   C        2.91086        -6.99376        -2.67598
   C        5.02698        -8.36689        -2.26334
   C        4.27452        -9.64391        -2.51249
   N        6.31277        -8.45536        -1.95706
   C        6.98259        -7.31520        -1.70237
   C        8.37281        -7.35452        -1.36490
   C        9.12486        -6.18266        -1.01748
   N       10.46006        -6.55682        -0.85513
   C       11.65896        -5.78315        -0.56182
   C       12.12466        -5.91850         0.88821
   C       10.54423        -7.91779        -1.06007
   C        9.27503        -8.44210        -1.34870
   S        9.28694       -10.17114        -1.59135
   C       11.03760       -10.17927        -1.32266
   C       11.55812        -8.89257        -1.07331
   S       13.26999        -8.92140        -0.84796
   C       13.29018       -10.68773        -1.01810
   C       12.00540       -11.20464        -1.29015
   C       11.67063       -12.66496        -1.36652
   C       11.11695       -13.16706        -0.02110
   C       14.51082       -11.40904        -0.98521
   C       15.75004       -11.03192        -0.51307
   C       16.17567        -9.97462         0.38885
   C       15.44679        -9.45400         1.44698
   C       15.89898        -8.33741         2.21190
   N       16.25610        -7.40050         2.80093
   C       14.21139       -10.03508         1.86897
   N       13.23198       -10.53656         2.24353
   C       17.61217        -9.72072         0.12364
   C       18.49073        -8.74557         0.61289
   C       19.81955        -8.79868         0.19869
   F       20.68616        -7.88363         0.62817
   C       20.28496        -9.80257        -0.67110
   F       21.56642        -9.78959        -1.02794
   C       19.42326       -10.78688        -1.14538
   C       18.09386       -10.72762        -0.74036
   C       16.97792       -11.64671        -1.11073
   O       17.04890       -12.64558        -1.79616
   H       10.60451         3.13768         3.90358
   H        8.07070         7.21474         2.42579
   H        5.86748         2.74971        -0.24723
   H        4.19661         1.67986        -0.69326
   H        3.72632         0.10186        -1.31460
   H        5.52131         2.15510        -2.78118
   H        3.83428         1.78078        -3.17782
   H        5.10317         0.54401        -3.42170
   H       10.36720        -4.09397         0.79199
   H        9.45239        -2.66007         1.18829
   H       11.37223        -2.83927        -1.22841
   H       11.68762        -2.00527         0.31737
   H       10.41158        -1.41981        -0.77048
   H        2.59442        -5.94532        -2.60895
   H        2.29706        -7.59627        -1.98815
   H        2.70323        -7.36711        -3.69329
   H        3.46021        -9.77883        -1.78145
   H        4.96715       -10.49129        -2.42997
   H        3.80425        -9.65357        -3.50975
   H       11.47767        -4.74388        -0.84417
   H       12.44797        -6.13974        -1.24292
   H       11.32202        -5.66357         1.59628
   H       12.98152        -5.25547         1.07856
   H       12.44189        -6.94764         1.11011
   H       12.56079       -13.24749        -1.64984
   H       10.92287       -12.82227        -2.16188
   H       11.85521       -13.01911         0.78059
   H       10.85473       -14.23461        -0.07796
   H       10.21182       -12.60753         0.26017
   H       14.51480       -12.36891        -1.51611
   H       18.18871        -7.94739         1.28881
   H       19.78374       -11.57588        -1.80780
*
