# ORCA input file
# BDTN-Th.out: Geometry 94
! B3LYP def2-TZVP def2/J RIJCOSX Grid4 TightSCF

%maxcore 6000
%tddft
  maxdim 5
  nroots 50
  end
%pal
  nprocs 6
  end


* xyz 0 1
   C        4.04773         3.62165         1.38163
   O        4.28809         4.30183         0.40761
   C        3.81223         4.06102         2.78038
   C        3.52430         2.91413         3.59437
   C        3.48288         1.71533         2.74205
   C        2.87850         0.52168         3.11075
   C        2.47439         0.29657         4.46165
   N        2.18187         0.12519         5.57395
   C        2.52052        -0.48228         2.16710
   N        2.20750        -1.29318         1.39505
   C        3.98754         2.11022         1.43512
   C        4.54172         1.42294         0.37368
   C       13.16907       -14.68822         1.56074
   O       12.68498       -13.83857         2.28691
   C       13.98682       -15.85554         1.96280
   C       14.38215       -16.58190         0.79128
   C       13.81530       -15.92984        -0.39955
   C       14.03779       -16.36880        -1.69613
   C       14.87843       -17.49603        -1.94757
   N       15.57182       -18.41150        -2.12965
   C       13.48142       -15.74987        -2.85565
   N       13.02271       -15.25175        -3.80136
   C       13.04787       -14.77435         0.07614
   C       12.30646       -13.91766        -0.71297
   C        5.05719         0.10713         0.26203
   C        5.34663        -0.83295         1.26028
   C        6.01115        -1.94981         0.74955
   C        6.23187        -1.90824        -0.65662
   S        5.62472        -0.44168        -1.33783
   N        6.50273        -3.13772         1.27706
   C        7.04761        -3.82925         0.20633
   C        6.85463        -3.12902        -0.99611
   C        7.69621        -5.09424         0.05318
   C        7.78107        -5.44963        -1.33598
   S        7.32989        -4.06912        -2.39194
   C        8.28795        -5.91591         1.02850
   C        8.81950        -7.13215         0.61789
   C        8.75169        -7.59557        -0.73819
   C        8.23631        -6.71735        -1.73450
   S        9.63701        -8.21887         1.73542
   C        9.90409        -9.33183         0.42125
   C        9.35568        -8.90650        -0.81677
   C       10.53322       -10.57205         0.21626
   C       10.34046       -10.87958        -1.15309
   N        9.61214        -9.87789        -1.77999
   S       11.43486       -11.79799         1.04832
   C       11.58186       -12.72510        -0.46935
   C       10.92760       -12.08281        -1.54098
   O        8.36973        -5.55512         2.34230
   O        8.24859        -7.17044        -3.01444
   C        9.25243        -4.45870         2.65948
   C       10.71011        -4.87900         2.69193
   C        7.29489        -6.68516        -3.96964
   C        7.02000        -7.75016        -5.01232
   C        8.87007       -10.18907        -3.00118
   C        7.64653       -11.08257        -2.72567
   C        6.55712       -10.33080        -1.91694
   C        6.48376       -10.71094        -0.43780
   C        7.09850       -11.70190        -4.02373
   C        6.19986       -12.91025        -3.75981
   C        5.86357        -3.82184         2.41516
   C        4.88176        -4.91813         1.95985
   C        4.30349        -5.65814         3.17531
   C        5.31406        -6.49022         3.96837
   C        3.79473        -4.35151         1.03429
   C        2.96179        -5.40382         0.30554
   C        3.82201         5.23940         3.47431
   S        3.49213         4.94707         5.15377
   C        3.32163         3.23610         4.91589
   C       14.44697       -16.39347         3.13147
   S       15.38539       -17.81669         2.80116
   C       15.16144       -17.67818         1.08624
   H        4.70926         2.07296        -0.49573
   H       12.25572       -14.18162        -1.76977
   H        5.12227        -0.66783         2.31137
   H       10.93576       -12.50137        -2.54704
   H        8.92101        -4.10608         3.64788
   H        9.08987        -3.63790         1.94236
   H       10.86998        -5.69410         3.41309
   H       11.33707        -4.02404         2.99140
   H       11.05110        -5.22395         1.70398
   H        7.69927        -5.77693        -4.44725
   H        6.36355        -6.41289        -3.45003
   H        7.94679        -8.08807        -5.50053
   H        6.35963        -7.33286        -5.78827
   H        6.51814        -8.62165        -4.56876
   H        9.56973       -10.70457        -3.67733
   H        8.58307        -9.24794        -3.47195
   H        8.01049       -11.92437        -2.10999
   H        5.57183       -10.51319        -2.37748
   H        6.72375        -9.24483        -2.00725
   H        6.20614       -11.77080        -0.31687
   H        5.73378       -10.10595         0.09428
   H        7.44676       -10.56038         0.07207
   H        7.93959       -12.01567        -4.66596
   H        6.54507       -10.93716        -4.59731
   H        6.76223       -13.70811        -3.24670
   H        5.79663       -13.33179        -4.69349
   H        5.34378       -12.64876        -3.11823
   H        5.33530        -3.05192         2.99609
   H        6.63984        -4.25832         3.05140
   H        5.46732        -5.65380         1.37973
   H        3.50406        -6.32773         2.82020
   H        3.80556        -4.92808         3.84003
   H        5.86019        -7.18736         3.31165
   H        4.80585        -7.08535         4.74324
   H        6.06905        -5.87056         4.47542
   H        4.26346        -3.71522         0.26786
   H        3.13313        -3.67813         1.60352
   H        3.60392        -6.08469        -0.28037
   H        2.26232        -4.91667        -0.39161
   H        2.35924        -6.02200         0.99005
   H        4.00485         6.24578         3.10176
   H        3.08294         2.58717         5.75536
   H       14.29077       -16.03839         4.14887
   H       15.60839       -18.40856         0.41642
*
