# ORCA input file
# BTDT2R.out: Geometry 48
! B3LYP def2-TZVP def2/J RIJCOSX Grid4 TightSCF

%maxcore 6000
%tddft
  maxdim 5
  nroots 50
  end
%pal
  nprocs 6
  end


* xyz 0 1
   C        0.91670         1.93838         0.46829
   C        2.08553         1.24232         0.15150
   C        2.19921        -0.19462         0.18902
   C        1.11812        -1.04438         0.44719
   C       -0.11632        -0.35663         0.73379
   C       -0.20797         1.09456         0.77458
   N       -1.27495        -0.95096         1.00560
   S       -2.38959         0.21585         1.28389
   N       -1.42854         1.52992         1.07757
   O        3.20180         1.93118        -0.22133
   O        3.41021        -0.72574        -0.13026
   C        4.49006        -0.49818         0.77722
   C        3.49306         1.91962        -1.62117
   C        0.80898         3.38977         0.44979
   C        1.19177        -2.50002         0.41016
   S       -0.73588         4.21206         0.50556
   C        0.01848         5.78474         0.38677
   C        1.40614         5.65930         0.34396
   C        1.84442         4.32671         0.37811
   C        2.32721        -3.31243         0.31412
   C        2.02413        -4.67753         0.26911
   C        0.65422        -4.95838         0.31060
   S       -0.26510        -3.47759         0.45378
   C       -0.80113         6.95990         0.35594
   C       -0.40530         8.26056         0.27157
   C        0.16675        -6.30319         0.22749
   C       -1.08031        -6.85869         0.20994
   C       -1.39849         9.36070         0.21978
   N       -0.73331        10.59736         0.08974
   C        0.63822        10.57962         0.05546
   S        1.22762         8.91003         0.19408
   S       -1.33902        -8.60447         0.05763
   C       -3.09628        -8.43080         0.13297
   N       -3.42739        -7.10405         0.28209
   C       -2.37745        -6.16856         0.30276
   O       -2.60445         9.24926         0.27439
   C       -1.48415        11.83883        -0.01012
   S        1.63232        11.87653        -0.08603
   S       -4.14009        -9.69396         0.02861
   C       -4.80853        -6.66132         0.38313
   O       -2.56290        -4.96998         0.38897
   H        4.25139        -0.91346         1.77146
   H        4.71797         0.57336         0.86611
   H        5.35712        -1.02732         0.36001
   H        4.30394         2.64281        -1.77749
   H        2.60913         2.23761        -2.19876
   H        3.80944         0.91840        -1.95282
   H        2.08723         6.50597         0.28252
   H        2.88810         4.02977         0.35045
   H        3.33571        -2.91939         0.26406
   H        2.77778        -5.46340         0.19230
   H       -1.88823         6.82639         0.38104
   H        0.98934        -7.02329         0.14705
   H       -2.54576        11.57200        -0.08096
   H       -1.15748        12.40046        -0.89703
   H       -1.30554        12.46659         0.87610
   H       -5.34734        -7.30948         1.08604
   H       -5.30910        -6.72269        -0.59511
   H       -4.79479        -5.62118         0.72985
*
