# ORCA input file
# IDF-IC.out: Geometry 39
! B3LYP def2-TZVP def2/J RIJCOSX Grid4 TightSCF

%maxcore 6000
%tddft
  maxdim 5
  nroots 50
  end
%pal
  nprocs 6
  end


* xyz 0 1
   C        2.96319        -4.17653         0.64055
   C        2.07617        -4.66026        -0.29009
   C        2.06991        -4.74457        -1.74321
   C        0.64852        -4.85013        -2.16471
   C       -0.15575        -5.02493        -1.01687
   C        0.69927        -5.00362         0.19885
   C        0.04494        -4.83601        -3.42777
   C       -1.34632        -4.97312        -3.50470
   C       -2.13393        -5.13246        -2.35623
   C       -1.53607        -5.16673        -1.09261
   H       -3.21706        -5.23647        -2.45502
   H       -1.82776        -4.95180        -4.48513
   O        0.35280        -5.16224         1.35191
   C        3.16558        -4.89990        -2.57251
   C        3.05330        -4.94776        -3.99667
   C        4.48518        -5.14405        -2.07882
   N        2.98300        -4.96281        -5.15702
   N        5.55972        -5.39605        -1.71631
   C        4.10168        -3.35396         0.53088
   O        4.47944        -2.82091        -0.69044
   C        5.51741        -2.01867        -0.44356
   C        5.83493        -1.97314         0.90187
   C        4.92951        -2.83593         1.54052
   C       11.05881         4.23361        -3.84934
   C       11.55752         5.03640        -4.85237
   C       11.61842         4.94749        -6.30068
   C       11.81929         6.32685        -6.81745
   C       12.07094         7.18971        -5.72902
   C       12.00328         6.41563        -4.45951
   C       11.82671         6.84258        -8.11848
   C       12.06884         8.21025        -8.29372
   C       12.31114         9.05777        -7.20493
   C       12.32006         8.54554        -5.90259
   H       12.50193        10.11896        -7.38033
   H       12.06628         8.62355        -9.30518
   O       12.20843         6.81924        -3.33323
   C       11.68435         3.79435        -7.06905
   C       11.72857         3.82026        -8.49757
   C       11.82011         2.49594        -6.49531
   N       11.74114         3.82712        -9.66003
   N       11.94049         1.43379        -6.03819
   C        6.37205        -1.19215        -1.24791
   C        7.29874        -0.60625        -0.33214
   C        7.02208        -1.05040         1.12909
   C        6.38041        -0.88777        -2.61910
   C        7.32401         0.02197        -3.06514
   C        8.22132         0.64710        -2.14213
   C        8.22038         0.33057        -0.77341
   C        7.52682         0.53943        -4.50988
   C        8.56185         1.61805        -4.24885
   C        8.95701         1.60673        -2.92197
   C        6.65600         0.21921         1.91491
   C        8.13894        -1.87309         1.77910
   C        8.19246        -0.49410        -5.43638
   C        6.20257         1.07838        -5.06463
   C        8.00415        -2.22899         3.13190
   C        8.92401        -3.07340         3.74518
   C       10.01650        -3.59926         3.03360
   C       10.14907        -3.23555         1.68869
   C        9.22729        -2.38415         1.06764
   C        7.60270         0.89741         2.69273
   C        7.28462         2.11330         3.30184
   C        6.01848         2.69541         3.14934
   C        5.07820         2.01328         2.36353
   C        5.38906         0.79672         1.75878
   C        5.38949         0.29880        -5.89626
   C        4.16861         0.79279        -6.36451
   C        3.71578         2.07083        -6.01095
   C        4.52626         2.83785        -5.15916
   C        5.74570         2.35054        -4.69192
   C        8.59913        -1.76057        -5.00792
   C        9.30348        -2.61064        -5.86718
   C        9.62938        -2.22151        -7.17058
   C        9.21884        -0.94751        -7.59520
   C        8.50946        -0.10319        -6.74757
   C       10.98758        -4.55008         3.69636
   C       10.37552        -5.92530         4.00315
   C        5.66286         3.97964         3.85939
   C        5.21334         3.74067         5.30941
   C       10.35218        -3.15408        -8.11195
   C        9.39016        -3.97608        -8.98190
   C        2.43870         2.63981        -6.58465
   C        2.69372         3.48487        -7.84112
   C        9.33674         2.59616        -4.87938
   C       10.16826         3.14452        -3.88893
   O        9.90611         2.51336        -2.67149
   H        2.64903        -4.36189         1.67481
   H        0.62571        -4.71005        -4.33904
   H       -2.11782        -5.30030        -0.17834
   H        4.84294        -3.08666         2.59551
   H       11.30883         4.58691        -2.84136
   H       11.63987         6.21429        -8.98637
   H       12.51700         9.17679        -5.03390
   H        5.65913        -1.33854        -3.30227
   H        8.89823         0.82963        -0.07950
   H        7.16753        -1.83127         3.71092
   H        8.78941        -3.33365         4.79878
   H       10.98776        -3.62780         1.10728
   H        9.36014        -2.13028         0.01499
   H        8.59782         0.47217         2.82984
   H        8.04161         2.62038         3.90720
   H        4.08473         2.44522         2.21520
   H        4.63952         0.29740         1.14166
   H        5.72058        -0.69569        -6.19817
   H        3.55655         0.16877        -7.02229
   H        4.19496         3.83473        -4.85570
   H        6.35558         2.97010        -4.03061
   H        8.37950        -2.09581        -3.99416
   H        9.62156        -3.59209        -5.50483
   H        9.48085        -0.60602        -8.60054
   H        8.20366         0.88195        -7.10568
   H       11.35723        -4.09839         4.63343
   H       11.86939        -4.67574         3.04806
   H        9.51674        -5.83793         4.68736
   H       11.11546        -6.59097         4.47536
   H       10.01261        -6.41023         3.08302
   H        4.86143         4.49463         3.30522
   H        6.53452         4.65577         3.84871
   H        4.33896         3.07170         5.34522
   H        4.93989         4.68486         5.80680
   H        6.01510         3.26400         5.89563
   H       10.99514        -3.83578        -7.53073
   H       11.02233        -2.56711        -8.76247
   H        8.72454        -4.59514        -8.35875
   H        9.94314        -4.64473        -9.66141
   H        8.75137        -3.31936        -9.59490
   H        1.93484         3.25836        -5.82242
   H        1.74683         1.81736        -6.82843
   H        3.35589         4.33498        -7.61384
   H        1.75496         3.88642        -8.25534
   H        3.18527         2.88586        -8.62367
   H        9.29682         2.92547        -5.91239
*
