# ORCA input file
# IPTBO-4Cl.out: Geometry 40
! B3LYP def2-TZVP def2/J RIJCOSX Grid4 TightSCF

%maxcore 6000
%tddft
  maxdim 5
  nroots 50
  end
%pal
  nprocs 6
  end


* xyz 0 1
   C       -0.27832        -2.28777        -1.97872
   C       -1.26289        -2.12838        -1.01448
   C       -2.69478        -1.99339        -1.29466
   C       -3.38463        -1.78691         0.00541
   C       -2.42347        -1.80785         1.03194
   C       -1.07398        -2.03619         0.45575
   C       -4.72509        -1.57264         0.33644
   C       -5.06853        -1.37479         1.68059
   C       -4.08878        -1.39174         2.69599
   C       -2.74878        -1.61572         2.36480
  Cl       -4.52529        -1.13576         4.35263
  Cl       -6.73318        -1.10233         2.07810
   O       -0.04876        -2.12471         1.11408
   C       -3.34215        -2.02706        -2.52039
   C       -4.75772        -1.87537        -2.64812
   C       -2.68032        -2.20713        -3.77564
   N       -5.90743        -1.75499        -2.77012
   N       -2.16263        -2.35059        -4.80723
   C       15.50923         2.58107        -3.91825
   C       15.70475         3.62628        -3.04988
   C       14.77444         4.38424        -2.21830
   C       15.56512         4.96421        -1.11102
   C       16.93600         4.78885        -1.39278
   C       17.09501         4.05166        -2.67919
   C       15.17581         5.58724         0.07467
   C       16.16693         5.99457         0.97620
   C       17.53690         5.81022         0.68450
   C       17.92538         5.21269        -0.52032
  Cl       18.75068         6.30714         1.81284
  Cl       15.67165         6.72083         2.46827
   O       18.13054         3.79377        -3.25447
   C       13.46031         4.69639        -2.51338
   C       12.65122         5.50793        -1.66021
   C       12.82822         4.28984        -3.72878
   N       11.97887         6.15400        -0.96623
   N       12.30389         3.99755        -4.72318
   C        1.12904        -2.35411        -1.91610
   S        1.95468        -2.47103        -3.50093
   C        3.49405        -2.38978        -2.73476
   C        3.36106        -2.28648        -1.31399
   C        2.04619        -2.28005        -0.85325
   C        4.86690        -2.30311        -3.01499
   C        5.52944        -2.10892        -1.76753
   N        4.61288        -2.14642        -0.74035
   S        5.97552        -2.25888        -4.36958
   C        7.28029        -1.92336        -3.25925
   C        6.91015        -1.85215        -1.92158
   C        8.65369        -1.50782        -3.44031
   C        9.11268        -1.04762        -2.17387
   C        8.05261        -1.28777        -1.07678
   C        9.46752        -1.45085        -4.58368
   C       10.72675        -0.88642        -4.44825
   C       11.13749        -0.33139        -3.20474
   C       10.34766        -0.43689        -2.04913
   C       11.79871        -0.66686        -5.53415
   C       12.76819         0.24310        -4.78079
   C       12.37237         0.36814        -3.45180
   C       13.93449         0.96405        -5.07085
   C       14.39458         1.69726        -3.97138
   S       13.40098         1.39390        -2.53899
   C       12.57131        -1.95287        -5.87305
   C       11.14526         0.00613        -6.74223
   C        7.54820         0.02685        -0.44979
   C        8.63979        -2.30100        -0.08882
   C        4.91211        -2.15519         0.68305
   C        4.42902        -3.37725         1.48342
   C        5.12546        -4.69648         1.11076
   C        4.93076        -5.19539        -0.32315
   C        4.64156        -3.00558         2.96570
   C        4.32155        -4.08926         3.99095
   C        7.25448         1.10699        -1.29658
   C        6.63922         2.25807        -0.80747
   C        6.28910         2.37374         0.54618
   C        6.60138         1.30269         1.39191
   C        7.22219         0.15036         0.90585
   C        9.56013        -1.90830         0.89493
   C       10.16262        -2.85126         1.72783
   C        9.88067        -4.21969         1.60495
   C        8.97085        -4.60885         0.61132
   C        8.36089        -3.66806        -0.21807
   C       13.61838        -1.88749        -6.80823
   C       14.45495        -2.97738        -7.02837
   C       14.26990        -4.18677        -6.33559
   C       13.19914        -4.26128        -5.43833
   C       12.36474        -3.16210        -5.20302
   C       10.64211        -0.75150        -7.80649
   C        9.91457        -0.14097        -8.83233
   C        9.66784         1.23799        -8.82138
   C       10.18309         1.98904        -7.75382
   C       10.91244         1.38944        -6.73007
   C        5.64208         3.62092         1.09772
   C        6.65892         4.56309         1.75600
   C       10.51086        -5.23595         2.52843
   C        9.51204        -5.87595         3.50036
   C       15.21165        -5.34987        -6.54727
   C       15.19618        -5.91813        -7.97186
   C        8.91516         1.92121        -9.93722
   C        9.84915         2.63534       -10.92348
   H       -0.64446        -2.34673        -3.00299
   H       -5.52008        -1.54441        -0.40396
   H       -1.97554        -1.63270         3.13414
   H       16.35624         2.34679        -4.57559
   H       14.13301         5.75469         0.33579
   H       18.97977         5.06374        -0.75833
   H        1.70417        -2.19823         0.17513
   H        9.11319        -1.81307        -5.55020
   H       10.68322        -0.01346        -1.10136
   H       14.41663         1.02496        -6.04608
   H        4.50374        -1.23655         1.13388
   H        6.00099        -2.09399         0.77184
   H        3.34432        -3.50515         1.31881
   H        4.74349        -5.47331         1.79204
   H        6.20358        -4.60585         1.33165
   H        3.86272        -5.25824        -0.58528
   H        5.36278        -6.20214        -0.43821
   H        5.41145        -4.54969        -1.06987
   H        4.02726        -2.11521         3.18204
   H        5.69111        -2.68249         3.09857
   H        3.29814        -4.48003         3.86389
   H        4.40030        -3.68113         5.01119
   H        5.01293        -4.94227         3.92517
   H        7.49153         1.03496        -2.36004
   H        6.40631         3.07741        -1.49331
   H        6.33544         1.36135         2.45121
   H        7.43082        -0.66560         1.59671
   H        9.81080        -0.85324         1.02148
   H       10.86980        -2.51727         2.49154
   H        8.72810        -5.66728         0.47861
   H        7.65985        -4.00272        -0.98308
   H       13.79105        -0.96085        -7.35931
   H       15.27907        -2.88198        -7.74132
   H       13.01666        -5.19191        -4.89339
   H       11.55947        -3.25295        -4.47292
   H       10.81713        -1.82929        -7.83367
   H        9.52337        -0.75071        -9.65207
   H       10.00150         3.06708        -7.71567
   H       11.29256         2.01039        -5.91697
   H        4.87825         3.33251         1.83890
   H        5.11095         4.15190         0.29060
   H        7.20944         4.04571         2.55811
   H        6.16250         5.44227         2.19644
   H        7.40051         4.91727         1.02324
   H       11.31870        -4.74971         3.09863
   H       10.98862        -6.02867         1.92678
   H        9.02303        -5.11329         4.12718
   H       10.01787        -6.59268         4.16703
   H        8.71926        -6.41819         2.96091
   H       14.96360        -6.14817        -5.82943
   H       16.23681        -5.02023        -6.29834
   H       14.19066        -6.27456        -8.24620
   H       15.89472        -6.76394        -8.06973
   H       15.49186        -5.15736        -8.71118
   H        8.21580         2.65487        -9.50092
   H        8.29825         1.18390       -10.47781
   H       10.48524         3.36659       -10.39958
   H        9.27839         3.17233       -11.69785
   H       10.51730         1.91713       -11.42561
*
