# ORCA input file
# NIDT.out: Geometry 51
! B3LYP def2-TZVP def2/J RIJCOSX Grid4 TightSCF

%maxcore 6000
%tddft
  maxdim 5
  nroots 50
  end
%pal
  nprocs 6
  end


* xyz 0 1
   C        4.10230         0.63614         3.76550
   C        5.17627         0.40307         2.85975
   C        6.31331         1.19560         2.86981
   C        6.36887         2.23129         3.81064
   C        5.34919         2.40214         4.78982
   C        4.20378         1.61983         4.76573
   C        3.02339        -0.25363         3.36093
   C        3.41302        -1.02651         2.27761
   C        4.85558        -0.76007         1.90744
   S        1.37129        -0.54111         3.85652
   C        1.18384        -1.72433         2.56470
   C        2.37934        -1.86703         1.82572
   C        7.30241         3.32425         3.97364
   C        6.90255         4.16373         5.00233
   C        5.71487         3.55701         5.74457
   S        8.69914         3.88031         3.09329
   C        8.74467         5.31225         4.11087
   C        7.71867         5.31112         5.08534
   C        5.75921        -1.93258         2.33518
   C        4.97171        -0.38032         0.42882
   C        4.55861         4.52871         5.96781
   C        6.29575         3.03818         7.07885
   C       -0.13352        -4.43864         0.36909
   C       -1.44503        -4.79217         0.26620
   C        9.70057         8.69017         5.19649
   C        9.37695         9.84766         5.85747
   C       -2.72578        -4.17510         0.62036
   C       -3.74304        -5.10535         0.24689
   C       -3.24916        -6.28295        -0.33934
   C       -1.75709        -6.12982        -0.40135
   C       10.11252        11.11460         5.73126
   C        9.35093        12.10361         6.40946
   C        8.18588        11.59793         7.00878
   C        8.17501        10.12184         6.72626
   C       -3.15314        -2.95630         1.13834
   C       -4.54058        -2.69606         1.28674
   C       -5.51539        -3.62917         0.94939
   C       -5.11076        -4.87471         0.41791
   C       -6.01027        -5.89233         0.02901
   C       -5.52021        -7.07223        -0.53285
   C       -4.13042        -7.27602        -0.73892
   C       -6.95859        -3.36653         1.11870
   N       -7.83357        -4.41799         0.77544
   C       -7.46569        -5.67740         0.26034
   C       -9.26086        -4.16948         1.03306
   C       -9.98028        -3.38130        -0.07805
   C       -9.89068        -4.05194        -1.45197
   C      -11.44070        -3.15110         0.33905
   C        7.33512        12.46618         7.67588
   C        7.66882        13.84469         7.72080
   C        8.83407        14.33740         7.13292
   C        9.70886        13.45110         6.46372
   C       10.91398        13.84402         5.84089
   C       11.68453        12.88306         5.18827
   C       11.29447        11.51938         5.11828
   C       11.31439        15.26431         5.90756
   N       10.41999        16.13186         6.57860
   C        9.18851        15.77808         7.16483
   C       10.79226        17.55043         6.64400
   C       11.37115        17.98425         7.99786
   C       12.50140        17.06842         8.47449
   C       11.84327        19.43507         7.87595
   C        4.83259         0.95105         0.01291
   C        4.90164         1.28888        -1.33806
   C        5.10724         0.31393        -2.32295
   C        5.21496        -1.02058        -1.90629
   C        5.14720        -1.36407        -0.55375
   C        7.06318        -2.06247         1.83685
   C        7.92140        -3.04385         2.33080
   C        7.52477        -3.92323         3.35217
   C        6.21290        -3.80063         3.83018
   C        5.34641        -2.82779         3.32850
   C        4.34411         5.60956         5.10372
   C        3.28940         6.50080         5.32436
   C        2.41199         6.33437         6.40510
   C        2.61205         5.22683         7.24440
   C        3.66150         4.33648         7.02916
   C        6.63075         1.69453         7.29338
   C        7.24959         1.29522         8.47968
   C        7.55776         2.21316         9.49169
   C        7.22415         3.55804         9.26872
   C        6.61044         3.96303         8.08379
   O       -7.39527        -2.31545         1.54501
   O       -8.29687        -6.53347         0.02461
   O       -0.94836        -6.90290        -0.87439
   O        7.35337         9.31674         7.11533
   O       12.34825        15.68078         5.41848
   O        8.46246        16.62170         7.65525
   C        8.50221        -4.92899         3.92276
   C        5.28767         0.71043        -3.76858
   C        7.90031        -6.25545         4.39213
   C        6.70911         1.22178        -4.04761
   C        1.30005         7.31907         6.69192
   C       -0.08875         6.67993         6.80024
   C        8.20973         1.73318        10.77117
   C        9.02531         2.77197        11.53868
   C        0.13752        -2.56288         2.11980
   C        0.52876        -3.35558         1.03662
   S        2.20876        -3.04683         0.57590
   C        9.52843         6.47194         4.13115
   C        9.08490         7.40492         5.08039
   S        7.69424         6.78874         5.99646
   H        7.10716         1.05510         2.13537
   H        3.39420         1.79012         5.47890
   H        0.52937        -5.15152        -0.13915
   H       10.60558         8.75710         4.58153
   H       -2.44465        -2.17961         1.42572
   H       -4.87237        -1.73491         1.68321
   H       -6.24196        -7.83667        -0.82454
   H       -3.76202        -8.19373        -1.20065
   H       -9.32594        -3.60041         1.96826
   H       -9.73260        -5.14883         1.16930
   H       -9.48403        -2.39898        -0.14566
   H      -10.34695        -5.05407        -1.44380
   H       -8.84788        -4.16692        -1.78758
   H      -10.41139        -3.43853        -2.20424
   H      -11.98541        -4.10791         0.40620
   H      -11.96613        -2.52034        -0.39553
   H      -11.51345        -2.64947         1.31803
   H        6.41936        12.10446         8.14795
   H        7.00999        14.55433         8.22459
   H       12.61144        13.21432         4.71538
   H       11.93668        10.80959         4.59280
   H        9.89264        18.14010         6.42738
   H       11.53308        17.71707         5.85196
   H       10.55004        17.94577         8.73441
   H       13.30740        17.00922         7.72664
   H       12.14311        16.04331         8.65981
   H       12.93172        17.44351         9.41694
   H       12.68586        19.51242         7.16755
   H       12.19088        19.82307         8.84578
   H       11.04026        20.09606         7.51242
   H        4.66737         1.73693         0.75152
   H        4.79978         2.33774        -1.63274
   H        5.36524        -1.80673        -2.65097
   H        5.25183        -2.41068        -0.25864
   H        7.41010        -1.39357         1.04642
   H        8.93051        -3.12390         1.91707
   H        5.85042        -4.46748         4.61567
   H        4.33477        -2.76044         3.73420
   H        5.01677         5.76463         4.25701
   H        3.15659         7.34944         4.64802
   H        1.93886         5.06057         8.08972
   H        3.80793         3.49822         7.71174
   H        6.41827         0.95081         6.52753
   H        7.51112         0.24249         8.61677
   H        7.45203         4.31341        10.02373
   H        6.37735         5.01882         7.94010
   H        9.03035        -4.45520         4.77154
   H        9.28013        -5.12682         3.16769
   H        4.56054         1.49862        -4.02914
   H        5.06308        -0.14778        -4.42261
   H        7.20164        -6.11577         5.23227
   H        8.69079        -6.93845         4.74005
   H        7.34600        -6.75349         3.58046
   H        6.95290         2.07617        -3.39710
   H        6.82416         1.55094        -5.09278
   H        7.45430         0.43603        -3.84557
   H        1.29485         8.09975         5.91377
   H        1.52669         7.84191         7.63932
   H       -0.37921         6.19039         5.85690
   H       -0.84940         7.43735         7.04546
   H       -0.12043         5.91282         7.58950
   H        8.85229         0.87240        10.52199
   H        7.42533         1.32468        11.43627
   H        9.78257         3.24416        10.89146
   H        9.54752         2.30356        12.38721
   H        8.38986         3.57328        11.94822
   H       -0.83417        -2.65741         2.59997
   H       10.38069         6.66658         3.47971
*
