# ORCA input file
# o-IO2.out: Geometry 135
! B3LYP def2-TZVP def2/J RIJCOSX Grid4 TightSCF

%maxcore 6000
%tddft
  maxdim 5
  nroots 50
  end
%pal
  nprocs 6
  end


* xyz 0 1
   C        6.00835         3.71512         3.25384
   O        7.01229         3.04853         3.44875
   C        5.56541         4.84785         4.11139
   C        6.23057         5.39764         5.20266
   C        5.63198         6.47518         5.84947
   C        4.38557         6.96161         5.41477
   C        3.72080         6.40510         4.32449
   C        4.32738         5.33460         3.65382
   C        3.91681         4.54436         2.46543
   C        2.69416         4.67277         1.82610
   C        2.28367         3.87121         0.71454
   N        1.91932         3.24019        -0.19171
   C        1.69628         5.60629         2.24813
   N        0.87162         6.35575         2.57922
   C        5.00051         3.60488         2.16290
   F        6.22830         7.06513         6.88418
   F        3.83527         7.98356         6.06704
   C       13.77119       -10.58317       -15.30799
   O       14.31796       -11.05992       -14.33448
   C       13.77857       -11.12932       -16.68926
   C       14.42915       -12.26771       -17.15352
   C       14.28608       -12.58597       -18.49964
   C       13.49511       -11.78270       -19.34034
   C       12.85774       -10.63321       -18.87753
   C       13.01023       -10.29562       -17.52637
   C       12.57260        -9.10607       -16.74383
   C       12.13710        -7.91865       -17.31909
   C       12.13169        -6.67502       -16.62347
   N       12.13883        -5.64032       -16.09342
   C       11.77815        -7.80912       -18.69815
   N       11.45281        -7.69995       -19.80912
   C       12.90891        -9.35365       -15.35355
   F       14.88823       -13.65185       -19.02224
   F       13.37193       -12.14485       -20.61461
   C        5.09412         2.85101         1.00303
   C        6.04406         1.90288         0.55243
   C        7.15279         1.29223         1.15288
   C        7.82374         0.39958         0.30473
   C        7.24664         0.29285        -0.98674
   S        5.84907         1.31586        -1.09884
   C        7.70101        -0.51304        -2.08020
   S        6.87787        -0.46859        -3.64922
   C        7.99126        -1.61954        -4.29661
   C        8.93862        -2.01687        -3.36090
   C        8.78320        -1.40090        -2.10724
   C        8.22703        -2.25201        -5.57768
   C        9.38328        -3.07382        -5.41699
   C        9.90104        -3.02288        -3.96924
   C        7.55587        -2.15161        -6.81160
   C        8.05896        -2.85994        -7.89769
   C        9.21457        -3.67980        -7.73358
   C        9.88817        -3.77828        -6.50265
   C        7.54014        -2.92880        -9.34739
   C        8.49705        -3.95191        -9.94566
   C        9.44684        -4.32772        -9.00417
   C        8.65468        -4.60142       -11.18623
   C        9.74193        -5.48384       -11.19081
   S       10.56204        -5.48943        -9.61985
   C       10.22839        -6.31473       -12.25255
   S       11.68145        -7.25421       -12.07327
   C       11.57791        -7.88322       -13.70985
   C       10.43212        -7.38865       -14.34061
   C        9.68260        -6.50472       -13.54545
   C       12.57258        -8.79458       -14.13326
   O        8.91612        -0.32016         0.62032
   C        9.41973        -0.23061         1.95392
   C       10.63936        -1.13413         2.08064
   C       11.76625        -0.70050         1.13983
   C       11.10783        -1.17175         3.53842
   C       11.36843        -2.54008        -3.87702
   C       11.59329        -1.09262        -4.30940
   C        9.71325        -4.37780        -3.22527
   C       10.53052        -5.57132        -3.71331
   C        6.06876        -3.39864        -9.42943
   C        5.83119        -4.83545        -8.96925
   C        7.73875        -1.58399       -10.10720
   C        6.93153        -0.37929        -9.62963
   O        8.56369        -5.85930       -13.92324
   C        8.14774        -6.00820       -15.28548
   C        7.03552        -5.01657       -15.59550
   C        7.52257        -3.57050       -15.46976
   C        6.48156        -5.29398       -16.99797
   H        7.18991         5.00485         5.54204
   H        2.76318         6.83421         4.03980
   H       15.03673       -12.88687       -16.49135
   H       12.27267       -10.04789       -19.58487
   H        4.30467         3.03232         0.27252
   H        7.43464         1.53418         2.17256
   H        9.40927        -1.56096        -1.23340
   H        6.66121        -1.53286        -6.90055
   H       10.78266        -4.39713        -6.41410
   H        8.02250        -4.47550       -12.06244
   H       10.14388        -7.69847       -15.33941
   H       13.18465        -9.21627       -13.32466
   H        8.62974        -0.53889         2.66098
   H        9.68331         0.81889         2.18292
   H       10.30846        -2.14832         1.78985
   H       12.12313         0.31089         1.40081
   H       11.43021        -0.68025         0.09179
   H       12.62555        -1.38456         1.21512
   H       11.42670        -0.17169         3.87774
   H       11.96873        -1.84729         3.65432
   H       10.31407        -1.52279         4.21635
   H       11.99984        -3.21004        -4.48133
   H       11.70108        -2.66957        -2.83204
   H       11.26777        -0.92846        -5.34931
   H       12.65925        -0.82568        -4.23994
   H       11.03261        -0.39287        -3.67257
   H        8.64144        -4.63399        -3.25392
   H        9.95526        -4.18701        -2.16550
   H       10.23902        -5.88284        -4.72679
   H       10.36062        -6.43279        -3.04867
   H       11.61241        -5.36591        -3.71620
   H        5.73545        -3.28453       -10.47604
   H        5.44446        -2.71180        -8.83678
   H        6.39087        -5.55148        -9.58835
   H        4.76370        -5.09614        -9.03940
   H        6.14959        -4.98048        -7.92415
   H        7.49511        -1.78365       -11.16499
   H        8.81255        -1.33621       -10.08124
   H        5.84746        -0.57273        -9.62993
   H        7.11314         0.47649       -10.29840
   H        7.22215        -0.06489        -8.61663
   H        7.80137        -7.04583       -15.44551
   H        9.01109        -5.82513       -15.94919
   H        6.23063        -5.19338       -14.85902
   H        8.32841        -3.37092       -16.19484
   H        7.92346        -3.36020       -14.46700
   H        6.70403        -2.86353       -15.67636
   H        7.25527        -5.13137       -17.76689
   H        5.64517        -4.61636       -17.22506
   H        6.11252        -6.32737       -17.09908
*
