# ORCA input file
# Y11.out
! B3LYP def2-TZVP def2/J RIJCOSX Grid4 TightSCF

%maxcore 6000
%tddft
  maxdim 5
  nroots 50
  end
%pal
  nprocs 6
  end


* xyz 0 1
   C        3.73263         3.59256        -2.29416
   O        4.94847         3.52348        -2.34216
   C        2.87666         4.42101        -3.16987
   C        3.25810         5.26535        -4.19277
   C        2.25765         5.93588        -4.87816
   F        2.58094         6.76457        -5.87910
   C        0.91811         5.75493        -4.53557
   F       -0.02750         6.41471        -5.21425
   C        0.53612         4.90593        -3.50670
   C        1.53037         4.23100        -2.81686
   C        1.46585         3.27883        -1.70558
   C        0.30826         2.84810        -1.10800
   C        0.22067         1.93027        -0.04086
   N        0.05892         1.18859         0.82196
   C       -0.98293         3.27101        -1.48867
   N       -2.06104         3.56904        -1.74616
   C        2.82407         2.89234        -1.38881
   C        3.18507         2.00354        -0.39977
   C        4.43418         1.52604        -0.00605
   S        5.97452         1.98067        -0.74283
   C        6.81375         0.92694         0.33054
   C        5.93613         0.26453         1.21071
   C        4.60116         0.59108         1.03526
   C        3.51258         0.04314         1.89838
   C        3.17439         1.01741         3.03055
   S        6.74353        -0.83836         2.30898
   C        8.25155        -0.41033         1.57700
   C        8.13707         0.54373         0.55700
   N        9.37368         0.83397         0.03945
   C        9.44150         1.36930        -1.30493
   C        9.55024         0.24617        -2.33378
   C       10.30048         0.05173         0.71571
   C        9.60421        -0.75514         1.66572
   C       10.27695        -1.75052         2.40359
   N        9.86270        -2.64830         3.29928
   N       10.93781        -3.34351         3.57380
   C       10.90530        -4.45768         4.47624
   C       10.50739        -5.73303         3.73898
   N       12.03459        -2.99930         2.94631
   C       11.66074        -1.97358         2.17956
   C       12.37391        -1.10876         1.32488
   C       11.71436        -0.04015         0.64678
   N       12.67560         0.73447         0.01985
   C       12.60260         2.08951        -0.47822
   C       12.79388         2.15916        -1.99234
   C       13.89640         0.16190         0.25767
   C       13.73888        -0.98666         1.04442
   S       15.22575        -1.78138         1.41998
   C       16.09468        -0.54180         0.54024
   C       15.23973         0.42493        -0.01799
   S       16.12867         1.63229        -0.86209
   C       17.65321         0.87458        -0.39115
   C       17.45767        -0.30951         0.32353
   C       18.54952        -1.25665         0.68567
   C       18.19852        -2.71681         0.41313
   C       18.82108         1.50138        -0.85451
   C       20.06030         1.50697        -0.26061
   C       21.28374         1.98006        -0.86913
   C       21.49136         2.21593        -2.20361
   C       22.71287         2.66657        -2.74554
   N       23.67976         3.03832        -3.23962
   C       20.52640         2.01141        -3.21251
   N       19.79898         1.84283        -4.08509
   C       22.29662         2.06846         0.18172
   C       23.62230         2.47072         0.14433
   C       24.34712         2.43126         1.32634
   F       25.62883         2.81523         1.31340
   C       23.77322         2.00452         2.52385
   F       24.51156         1.97868         3.64049
   C       22.44640         1.60701         2.56959
   C       21.72654         1.64172         1.39237
   C       20.30522         1.28200         1.17625
   O       19.50504         0.97366         2.03472
   H        4.29524         5.40182        -4.45414
   H       -0.51275         4.80223        -3.28305
   H        2.36940         1.59007         0.17714
   H        3.86094        -0.89709         2.33044
   H        2.61287        -0.16083         1.31611
   H        4.05158         1.20085         3.64664
   H        2.39046         0.59743         3.65393
   H        2.82505         1.96670         2.63153
   H       10.27002         2.06254        -1.41346
   H        8.51638         1.92788        -1.46645
   H       10.45031        -0.34262        -2.16694
   H        9.58071         0.66411        -3.33612
   H        8.68998        -0.41525        -2.26134
   H       10.17938        -4.22802         5.25862
   H       11.90409        -4.55809         4.90469
   H        9.52094        -5.61650         3.29696
   H       10.48516        -6.56861         4.43240
   H       11.22427        -5.94983         2.95077
   H       13.40634         2.66068         0.00042
   H       11.65732         2.52997        -0.15924
   H       13.80243         1.85009        -2.25369
   H       12.65179         3.18058        -2.33418
   H       12.09566         1.51086        -2.51391
   H       18.78183        -1.12435         1.74727
   H       19.44694        -0.98818         0.12350
   H       17.41473        -3.06717         1.07814
   H       19.07875        -3.33483         0.57063
   H       17.86713        -2.84480        -0.61505
   H       18.69539         2.08803        -1.75765
   H       24.10882         2.81371        -0.75397
   H       21.99861         1.28001         3.49437
*
