# ORCA input file
# Y5.out
! B3LYP def2-TZVP def2/J RIJCOSX Grid4 TightSCF

%maxcore 6000
%tddft
  maxdim 5
  nroots 50
  end
%pal
  nprocs 6
  end


* xyz 0 1
   C        0.44489        -1.20242        -0.98087
   O        0.96552        -0.67030        -1.93529
   C        1.06014        -1.55096         0.31780
   C        2.37346        -1.41644         0.72306
   C        2.71407        -1.84495         1.99885
   C        1.75657        -2.39662         2.83802
   C        0.43224        -2.52562         2.43988
   C        0.08211        -2.09613         1.17094
   C       -1.20901        -2.05023         0.48814
   C       -2.43578        -2.04340         1.10044
   C       -3.61372        -1.64747         0.43334
   N       -4.57577        -1.27390        -0.06984
   C       -2.64039        -2.33728         2.46167
   N       -2.86401        -2.60262         3.55635
   C       -0.95081        -1.70424        -0.89057
   C       -1.69246        -1.85788        -2.02367
   C       -2.81697        -2.67698        -2.25071
   S       -3.17325        -4.06735        -1.22288
   C       -4.53284        -4.47150        -2.20052
   C       -4.67546        -3.57809        -3.27111
   C       -3.70467        -2.57444        -3.31686
   C       -3.70578        -1.46702        -4.31508
   C       -4.35440        -0.21565        -3.71752
   S       -6.04409        -3.94438        -4.29640
   C       -6.42231        -5.28339        -3.27228
   C       -5.53971        -5.43774        -2.19563
   N       -5.92921        -6.49596        -1.41447
   C       -4.94022        -7.17004        -0.60099
   C       -3.82670        -7.76220        -1.46505
   C       -7.08274        -7.01850        -1.97303
   C       -7.38256        -6.30148        -3.16527
   C       -8.43340        -6.70130        -4.02100
   N       -8.79445        -6.18171        -5.18328
   S      -10.01135        -7.06321        -5.78492
   N      -10.12991        -8.13981        -4.58201
   C       -9.22012        -7.84896        -3.66612
   C       -9.01536        -8.45420        -2.40537
   C       -7.99694        -8.00182        -1.51870
   N       -8.16806        -8.62347        -0.29794
   C       -7.63113        -8.29200         1.00343
   C       -6.75693        -9.41319         1.56508
   C       -9.24351        -9.46391        -0.40380
   C       -9.77012        -9.40159        -1.69947
   S      -11.16949       -10.38859        -1.92944
   C      -11.07960       -10.87306        -0.25088
   C      -10.00746       -10.28442         0.43252
   S      -10.03395       -10.70412         2.10030
   C      -11.45210       -11.72001         1.85564
   C      -11.89478       -11.69632         0.53888
   C      -13.16316       -12.29942         0.02131
   C      -12.93100       -13.22819        -1.17129
   C      -12.00575       -12.29469         3.02613
   C      -12.72799       -13.43481         3.20017
   C      -12.91688       -14.61015         2.38083
   C      -12.02092       -15.10456         1.46993
   C      -12.19707       -16.31602         0.77192
   N      -12.30063       -17.28596         0.16685
   C      -10.78630       -14.48489         1.19078
   N       -9.75800       -14.03265         0.95413
   C      -14.08203       -15.32157         2.90339
   C      -14.79098       -16.40303         2.40782
   C      -15.85822       -16.88895         3.15225
   C      -16.21261       -16.31955         4.36700
   C      -15.51139       -15.23169         4.86898
   C      -14.45435       -14.73894         4.12921
   C      -13.57153       -13.58965         4.41754
   O      -13.55566       -12.88841         5.40302
   H        3.10467        -0.98595         0.05631
   H        3.73326        -1.74994         2.34206
   H        2.04356        -2.73210         3.82339
   H       -0.29570        -2.96119         3.10577
   H       -1.30594        -1.33884        -2.89607
   H       -4.27185        -1.78785        -5.19172
   H       -2.68457        -1.23549        -4.62457
   H       -5.37771        -0.42809        -3.41908
   H       -4.36293         0.58651        -4.45060
   H       -3.80570         0.11491        -2.83889
   H       -5.41114        -7.97416        -0.04808
   H       -4.52026        -6.44220         0.10057
   H       -3.11806        -8.28991        -0.83283
   H       -3.29353        -6.98371        -2.00386
   H       -4.24250        -8.46299        -2.18621
   H       -8.47862        -8.14118         1.68190
   H       -7.09168        -7.34672         0.93628
   H       -7.36162       -10.29129         1.77366
   H       -6.29402        -9.08653         2.49183
   H       -5.97658        -9.70616         0.86598
   H      -13.81146       -11.47931        -0.30387
   H      -13.67867       -12.83106         0.82154
   H      -12.20597       -14.00308        -0.93655
   H      -12.55689       -12.66667        -2.02293
   H      -13.86621       -13.70410        -1.45562
   H      -11.87712       -11.70510         3.93077
   H      -14.53701       -16.85640         1.46295
   H      -16.42213       -17.72849         2.77437
   H      -17.04300       -16.72570         4.92462
   H      -15.77390       -14.77344         5.81002
*
