# ORCA input file
# ZY-4Cl.out
! B3LYP def2-TZVP def2/J RIJCOSX Grid4 TightSCF

%maxcore 6000
%tddft
  maxdim 5
  nroots 50
  end
%pal
  nprocs 6
  end


* xyz 0 1
   C        3.66669         2.59162         0.36508
   O        4.57569         2.46095        -0.43768
   C        2.34613         3.25477         0.09246
   C        1.86624         3.79562        -1.09323
   C        0.58333         4.35838        -1.09282
  Cl       -0.04191         5.01941        -2.56876
   C       -0.19370         4.38799         0.09052
  Cl       -1.77370         5.10267         0.09173
   C        0.30159         3.83697         1.27848
   C        1.56830         3.26919         1.25962
   C        2.31324         2.58214         2.36091
   O        1.93079         2.41656         3.50400
   C        3.60639         2.14692         1.76955
   C        4.47194         1.39286         2.51266
   C        5.75282         0.83627         2.28004
   S        6.76299         1.12285         0.84207
   C        8.03259         0.15064         1.52128
   C        7.66658        -0.38158         2.77784
   C        6.38901        -0.00455         3.21977
   C        5.76206        -0.54716         4.47488
   C        4.99297        -1.85138         4.20341
   S        8.90217        -1.40953         3.50507
   C        9.91863        -1.10840         2.12311
   C        9.33167        -0.28183         1.15295
   N       10.21994        -0.10112         0.09997
   C       10.09672         1.08507        -0.75213
   C       10.24319         2.39722         0.01697
   C       11.37890        -0.83468         0.38901
   C       11.20868        -1.44920         1.66919
   C       12.24907        -2.21779         2.28088
   N       12.20554        -2.83503         3.45305
   S       13.68797        -3.54367         3.67518
   N       14.41548        -3.06087         2.26688
   C       13.52092        -2.34563         1.59876
   C       13.66220        -1.79271         0.28625
   C       12.58473        -1.10141        -0.35763
   N       12.95058        -0.88244        -1.68875
   C       12.11313        -0.53971        -2.83699
   C       12.43404         0.83008        -3.43697
   C       14.22529        -1.39522        -1.87490
   C       14.68847        -1.93999        -0.66683
   S       16.24348        -2.71719        -0.79546
   C       16.24982        -2.34925        -2.52300
   C       15.11242        -1.63363        -2.95468
   S       15.16904        -1.30696        -4.65776
   C       16.71214        -2.18808        -4.79595
   C       17.15276        -2.67865        -3.54646
   C       18.43275        -3.42586        -3.29502
   C       19.59224        -2.49022        -2.92321
   C       17.39797        -2.44464        -6.00969
   C       17.17281        -2.09472        -7.31521
   C       18.03300        -2.64704        -8.39535
   O       18.98962        -3.38664        -8.26803
   C       17.45290        -2.14214        -9.68286
   C       17.83015        -2.41707       -10.99108
   C       17.10622        -1.81285       -12.02754
  Cl       17.53826        -2.15965       -13.67097
   C       16.03384        -0.93467       -11.74334
  Cl       15.15963        -0.17921       -13.03652
   C       15.66103        -0.66910       -10.41935
   C       16.37476        -1.29056        -9.40191
   C       16.14996        -1.22371        -7.92040
   O       15.27256        -0.57904        -7.36910
   H        2.46278         3.77931        -2.00672
   H       -0.29825         3.85048         2.18988
   H        4.07469         1.17256         3.51019
   H        5.09112         0.19518         4.93169
   H        6.56072        -0.73317         5.21117
   H        4.15792        -1.67504         3.50813
   H        4.58183        -2.26998         5.13525
   H        5.65376        -2.60529         3.74801
   H        9.11899         1.03847        -1.25913
   H       10.85762         1.02777        -1.52943
   H       11.21990         2.44715         0.52302
   H        9.45460         2.51814         0.77420
   H       10.16867         3.24378        -0.68370
   H       11.06457        -0.62230        -2.52430
   H       12.26624        -1.32129        -3.59916
   H       11.70962         1.07637        -4.22748
   H       13.43681         0.84277        -3.88891
   H       12.40425         1.62465        -2.67579
   H       18.70442        -4.03477        -4.17014
   H       18.25524        -4.13765        -2.47183
   H       19.83510        -1.81246        -3.75598
   H       20.49454        -3.07023        -2.67465
   H       19.33155        -1.87006        -2.05155
   H       18.28423        -3.08219        -5.89581
   H       18.66346        -3.08535       -11.21344
   H       14.82749        -0.00062       -10.20005
*
