# ORCA input file
# SCF done       -209.499221101850          0.000437825908
! B3LYP/G D3BJ Opt RIJCOSX def2-SVP def2/J
* xyz 0 1
   C        2.80695         6.38277        -0.38898
   O        3.55022         7.30699        -0.62402
   C        1.32818         6.39814        -0.32327
   C        0.46016         7.44135        -0.57157
   C       -0.90494         7.20339        -0.46358
   C       -1.37599         5.93304        -0.11306
   C       -0.49804         4.88577         0.14610
   C        0.86165         5.12221         0.04226
   C        2.01105         4.25187         0.28297
   C        1.99068         3.10135         1.02723
   C        3.15237         2.43230         1.46227
   N        4.06396         1.87092         1.87648
   C        0.81185         2.49792         1.51070
   N       -0.11539         1.95167         1.90901
   C        3.18893         4.96652        -0.15334
   C        4.47308         4.57088        -0.38551
   C        5.01401         3.28082        -0.59220
   S        6.68324         3.05540        -0.07449
   C        6.67037         1.43219        -0.64125
   C        5.45120         1.12207        -1.25990
   C        4.50341         2.15367        -1.22671
   C        3.19275         2.07544        -1.94542
   C        2.33835         0.88820        -1.49960
   S        5.42148        -0.49096        -1.93777
   C        7.03077        -0.73975        -1.36172
   C        7.56355         0.35757        -0.68016
   N        8.83577         0.07853        -0.25390
   C        9.68910         1.19579         0.07332
   C       10.55692         1.66909        -1.11045
   C        9.14397        -1.21265        -0.65856
   C        8.02599        -1.72497        -1.38503
   C        8.04840        -2.97736        -2.03538
   N        7.11098        -3.54280        -2.77995
   S        7.67976        -4.95423        -3.33203
   N        9.14192        -4.89852        -2.63914
   C        9.23519        -3.77122        -1.95132
   C       10.28800        -3.32580        -1.12313
   C       10.25100        -2.07861        -0.42723
   N       11.34618        -2.03271         0.41739
   C       11.72082        -1.13759         1.48599
   C       12.79676        -0.08848         1.12074
   C       12.04763        -3.20083         0.26938
   C       11.43468        -4.00478        -0.69694
   S       12.21508        -5.52311        -0.94628
   C       13.37047        -5.11396         0.30536
   C       13.14036        -3.84378         0.85949
   S       14.26935        -3.49914         2.11310
   C       15.00984        -5.08922         1.92321
   C       14.43392        -5.81991         0.88289
   C       14.96685        -7.11692         0.37984
   C       15.00274        -7.21043        -1.14290
   C       16.10904        -5.35874         2.75664
   C       16.52916        -6.57997         3.22169
   C       17.78744        -6.84116         3.88682
   C       18.88189        -6.01550         3.91146
   C       18.95511        -4.75984         3.27255
   N       19.09407        -3.74282         2.75740
   C       20.09487        -6.32954         4.55869
   N       21.10316        -6.52494         5.07118
   C       17.72003        -8.18833         4.44694
   C       18.63617        -8.92304         5.18082
   C       18.29163       -10.21081         5.57756
   C       17.04814       -10.76186         5.25102
   C       16.12474       -10.02397         4.51997
   C       16.47294        -8.74980         4.12354
   C       15.66980        -7.77326         3.35338
   O       14.51455        -7.90425         3.00621
  Cl       16.65693       -12.35657         5.75385
  Cl       -2.01668         8.47709        -0.76373
   C       13.53557         0.35377         2.38861
   C       12.63445         1.04501         3.40591
   C       13.79510        -0.59930         0.08449
   C        9.71474         1.87458        -2.37442
   C       10.54634         2.29209        -3.58217
   C       11.25724         2.96299        -0.69857
  Cl       -3.06573         5.65143         0.00256
  Cl       19.42084       -11.13145         6.48744
   H        0.83383         8.41655        -0.84081
   H       -0.89262         3.91831         0.41137
   H        5.18640         5.38852        -0.45516
   H        3.40734         1.96167        -3.01299
   H        2.64197         3.00772        -1.81721
   H        2.81292        -0.04882        -1.77734
   H        1.36384         0.93612        -1.97900
   H        2.19372         0.88417        -0.42245
   H       10.31712         0.96492         0.93060
   H        9.02489         2.01314         0.36706
   H       11.30583         0.89882        -1.32629
   H       12.12996        -1.77068         2.28041
   H       10.82255        -0.65936         1.87919
   H       12.31466         0.79068         0.69300
   H       14.34672        -7.92304         0.78532
   H       15.97515        -7.25784         0.77675
   H       14.00158        -7.24742        -1.56198
   H       15.52664        -8.11661        -1.43610
   H       15.52724        -6.35677        -1.56669
   H       16.64602        -4.48050         3.09741
   H       19.60047        -8.52818         5.45579
   H       15.16133       -10.43623         4.26494
   H       14.32880         1.04453         2.09678
   H       14.01008        -0.51535         2.84905
   H       12.12496         1.89532         2.95613
   H       13.22859         1.41134         4.23900
   H       11.88630         0.36389         3.80312
   H       14.39569        -1.40969         0.48560
   H       14.46639         0.20784        -0.19849
   H       13.29035        -0.94707        -0.81423
   H        8.95178         2.63176        -2.17947
   H        9.20580         0.94053        -2.62258
   H       10.96303         3.28649        -3.45114
   H        9.92392         2.30299        -4.47350
   H       11.36232         1.59111        -3.74517
   H       10.53513         3.77376        -0.63410
   H       12.02132         3.23400        -1.42043
   H       11.73662         2.86055         0.27267
*
