# ORCA input file
# SCF done       -191.045830578956          0.000801616537
! B3LYP/G D3BJ Opt RIJCOSX def2-SVP def2/J
* xyz 0 1
   C        4.61551         0.59006         1.01237
   O        4.37956         0.96819         2.14228
   C        5.62069         1.16581         0.08985
   C        6.43396         2.26310         0.28956
   C        7.31890         2.59933        -0.72255
   F        8.12460         3.65795        -0.57305
   C        7.38018         1.84499        -1.89435
   F        8.24869         2.18968        -2.85162
   C        6.56488         0.74043        -2.09339
   C        5.67594         0.40006        -1.08634
   C        4.69659        -0.68068        -0.98589
   C        4.37260        -1.56256        -1.98398
   C        3.33887        -2.52002        -1.90556
   N        2.49836        -3.30252        -1.92090
   C        5.01216        -1.60300        -3.24057
   N        5.49989        -1.68678        -4.27589
   C        4.06649        -0.58258         0.31382
   C        3.26942        -1.54797         0.87888
   C        2.48927        -1.50077         2.04721
  Se        2.31617        -3.18318         2.95207
   C        1.32214        -2.27096         4.22871
   C        1.14695        -0.92745         3.85903
   C        1.76171        -0.49260         2.67679
   C        1.50360         0.88258         2.15904
   C        0.97000         0.90103         0.72806
   S        0.16152        -0.02483         4.99268
   C        0.01668        -1.44176         5.96527
   C        0.68858        -2.55155         5.44186
   N        0.53620        -3.63287         6.27335
   C        0.68358        -4.95102         5.69606
   C       -0.44793        -5.25015         4.71359
   C       -0.23260        -3.22220         7.35134
   C       -0.59769        -1.85890         7.15576
   C       -1.48183        -1.19183         8.03220
   N       -1.94954         0.04398         7.95202
   S       -2.98316         0.28233         9.17354
   N       -2.87098        -1.18013         9.85648
   C       -2.01970        -1.90881         9.15174
   C       -1.54603        -3.21318         9.41610
   C       -0.60312        -3.85753         8.56361
   N       -0.19480        -5.02835         9.17388
   C        0.93566        -5.88561         8.90528
   C        0.50195        -7.26727         8.41402
   C       -0.86647        -5.14217        10.36224
   C       -1.72360        -4.04793        10.52802
   S       -2.58156        -4.06430        12.02280
   C       -1.74735        -5.53749        12.47044
   C       -0.87554        -5.99818        11.46879
  Se       -0.05448        -7.58692        11.98211
   C       -0.97402        -7.39375        13.63947
   C       -1.81506        -6.28888        13.65408
   C       -2.83169        -6.00747        14.71602
   C       -2.68120        -4.61838        15.33704
   C       -0.76393        -8.40970        14.59644
   C       -0.66870        -8.24556        15.95259
   C       -0.64064        -9.29314        16.94802
   C       -0.99616       -10.60351        16.75920
   C       -0.96252       -11.58560        17.77068
   N       -0.94618       -12.42619        18.55189
   C       -1.46229       -11.13396        15.53783
   N       -1.86848       -11.62097        14.58050
   C       -0.24643        -8.68530        18.21780
   C       -0.05766        -9.23656        19.47545
   C        0.31855        -8.38907        20.50686
   F        0.50698        -8.89954        21.72854
   C        0.50810        -7.02216        20.30055
   F        0.86920        -6.24148        21.32586
   C        0.32740        -6.46529        19.04477
   C       -0.05316        -7.30791        18.01941
   C       -0.29306        -6.96932        16.59828
   O       -0.09236        -5.89804        16.06953
   H        6.38657         2.84265         1.19770
   H        6.65362         0.18601        -3.01320
   H        3.28884        -2.52435         0.40155
   H        2.43124         1.45852         2.21851
   H        0.77591         1.35870         2.82030
   H        1.69227         0.49070         0.02752
   H        0.74942         1.92376         0.43360
   H        0.05480         0.31685         0.65828
   H        0.68918        -5.70685         6.47083
   H        1.64612        -4.97377         5.16980
   H       -1.41065        -5.19530         5.21772
   H       -0.32221        -6.24800         4.30288
   H       -0.44497        -4.53668         3.89219
   H        1.48469        -6.01051         9.84806
   H        1.60423        -5.38710         8.20211
   H        0.00956        -7.81130         9.21991
   H        1.37084        -7.83786         8.09808
   H       -0.19986        -7.19907         7.58567
   H       -2.76763        -6.76834        15.49488
   H       -3.82099        -6.08031        14.25196
   H       -1.67702        -4.49086        15.73039
   H       -3.39526        -4.50385        16.14864
   H       -2.86790        -3.84243        14.60014
   H       -0.60160        -9.40358        14.19067
   H       -0.18444       -10.28642        19.68300
   H        0.47728        -5.41007        18.88107
*
