# ORCA input file
# SCF done       -197.029009994538          0.000474829934
! B3LYP/G D3BJ Opt RIJCOSX def2-SVP def2/J
* xyz 0 1
   C        6.50141         4.48916        -0.64483
   O        7.34191         3.61027        -0.72694
   C        6.58672         5.83315        -1.25164
   C        7.59480         6.36712        -2.02648
   C        7.44683         7.66802        -2.49247
  Cl        8.67744         8.37011        -3.46339
   C        6.30051         8.40326        -2.17549
  Cl        6.12728        10.00882        -2.76123
   C        5.28699         7.85948        -1.39251
   C        5.43104         6.56374        -0.92616
   C        4.56079         5.72534        -0.10084
   C        3.35153         6.11737         0.41645
   C        2.49939         5.32842         1.21620
   N        1.74951         4.75456         1.87148
   C        2.78334         7.39353         0.21882
   N        2.26076         8.40864         0.09918
   C        5.22003         4.44614         0.05894
   C        4.70724         3.37141         0.74999
   C        5.22391         2.09635         0.98059
   S        6.80204         1.52421         0.43082
   C        6.51313        -0.01075         1.15804
   C        5.25220        -0.06772         1.78175
   C        4.52252         1.10754         1.69770
   C        3.14274         1.24576         2.25239
   C        2.09233         0.98787         1.16828
   S        4.90023        -1.62101         2.51482
   C        6.44477        -2.18621         1.97794
   C        7.19185        -1.22481         1.28507
   N        8.39841        -1.75095         0.89960
   C        9.08283        -1.13450        -0.21823
   C        8.65037        -1.76843        -1.53845
   C        8.43175        -3.07166         1.32721
   C        7.19914        -3.36401         1.98565
   C        6.89643        -4.67248         2.41392
   N        5.82720        -5.20604         3.00725
   N        6.11119        -6.48187         3.08690
   C        5.18114        -7.42800         3.63145
   C        4.20997        -7.90432         2.55523
   N        7.26831        -6.85645         2.60118
   C        7.81469        -5.72351         2.15637
   C        9.07249        -5.42416         1.59520
   C        9.42251        -4.08425         1.25023
   N       10.75594        -4.06707         0.87640
   C       11.69007        -2.96589         0.80253
   C       12.18829        -2.72397        -0.62115
   C       11.22682        -5.35116         0.94303
   C       10.20549        -6.21208         1.36768
   S       10.69122        -7.86533         1.50313
   C       12.30553        -7.40238         1.01185
   C       12.43201        -6.02963         0.74797
   S       14.03167        -5.65976         0.23581
   C       14.53424        -7.35043         0.43914
   C       13.46578        -8.16123         0.83282
   C       13.42937        -9.64567         0.95278
   C       13.90856       -10.36722        -0.30504
   C       15.87052        -7.58807         0.07838
   C       16.73725        -8.58075         0.46845
   C       18.01058        -8.86479        -0.16073
   C       18.47122        -8.36031        -1.35013
   C       19.72346        -8.68367        -1.91309
   N       20.73046        -8.89689        -2.42111
   C       17.76205        -7.47576        -2.18974
   N       17.24121        -6.77793        -2.93895
   C       18.69058        -9.87100         0.65230
   C       19.91614       -10.49830         0.50247
   C       20.29700       -11.44915         1.44347
  Cl       21.81388       -12.23580         1.26417
   C       19.47092       -11.77099         2.52500
  Cl       19.97088       -12.95303         3.66625
   C       18.24351       -11.13818         2.68135
   C       17.86716       -10.20183         1.74162
   C       16.62922        -9.39366         1.68999
   O       15.76626        -9.34666         2.54478
   H        8.47340         5.78838        -2.26347
   H        4.41887         8.45791        -1.17093
   H        3.73207         3.52172         1.19212
   H        2.98725         2.23804         2.67819
   H        3.02025         0.50880         3.04861
   H        2.19059         1.70586         0.35749
   H        1.09663         1.08165         1.59184
   H        2.20706        -0.01412         0.76131
   H       10.16071        -1.19617        -0.10443
   H        8.80637        -0.07735        -0.21020
   H        8.88591        -2.83102        -1.55034
   H        9.15937        -1.28296        -2.36642
   H        7.57788        -1.65347        -1.67733
   H        4.64011        -6.93193         4.43960
   H        5.76120        -8.26548         4.02300
   H        3.65529        -7.05999         2.15344
   H        3.50799        -8.61602         2.97977
   H        4.75361        -8.38680         1.74662
   H       12.54997        -3.22042         1.43281
   H       11.22267        -2.08007         1.23416
   H       12.77741        -3.57288        -0.95775
   H       12.82058        -1.84074        -0.64382
   H       11.36425        -2.58739        -1.31545
   H       12.39888        -9.93739         1.16785
   H       14.04732        -9.94364         1.80527
   H       13.31573       -10.06380        -1.16544
   H       13.80221       -11.44077        -0.17329
   H       14.95260       -10.15004        -0.51406
   H       16.27528        -6.83486        -0.58937
   H       20.58158       -10.27245        -0.31444
   H       17.59853       -11.37516         3.51263
*
