# ORCA input file
# P3HT.out: Geometry 116
! B3LYP def2-TZVP def2/J RIJCOSX Grid4 TightSCF

%maxcore 6000
%tddft
  maxdim 5
  nroots 50
  end
%pal
  nprocs 6
  end


* xyz 0 1
   C        0.41761        -0.24741        -0.20696
   C       -0.94580        -0.47576        -0.18530
   C       -1.69109         0.74333        -0.08434
   C       -0.91918         1.87895        -0.02425
   S        0.77006         1.46562        -0.08747
   C       -1.56798        -1.83967        -0.34614
   C       -1.63760        -2.28494        -1.81270
   C        1.49806        -1.22723        -0.29079
   C        2.40663        -1.44599        -1.31261
   C        3.30457        -2.51555        -1.01455
   C        3.08843        -3.11145         0.21303
   S        1.76587        -2.33145         1.04355
   C        2.42789        -0.67472        -2.60619
   C        2.33781        -1.56313        -3.85275
   C        6.36152        -7.18027         1.15562
   C        7.55294        -7.30098         1.85324
   C        8.31628        -8.42457         1.41533
   C        7.72974        -9.14595         0.39267
   S        6.18698        -8.45341        -0.03674
   C        8.02682        -6.33263         2.90539
   C        8.27008        -6.97032         4.27967
   C       10.38843       -13.58013        -0.77623
   C       11.69293       -13.68602        -0.30986
   C       12.14956       -15.04301        -0.31102
   C       11.22325       -15.95893        -0.74946
   S        9.74262       -15.16209        -1.17825
   C       12.52874       -12.51154         0.14883
   C       14.02941       -12.79012         0.23872
   C        5.32883        -6.15735         1.27428
   C        4.46043        -5.90870         2.32431
   C        3.59474        -4.80593         2.05377
   C        3.78947        -4.22511         0.81473
   S        5.06877        -5.04006        -0.04846
   C        4.40060        -6.73464         3.58226
   C        4.59367        -5.93019         4.87297
   C        9.52496       -12.41055        -0.86294
   C        8.60531       -12.05001        -1.84317
   C        7.88001       -10.87183        -1.49194
   C        8.23229       -10.32984        -0.27078
   S        9.46644       -11.29564         0.48879
   C        8.40219       -12.79397        -3.14052
   C        8.24700       -11.88843        -4.36567
   C       11.35683       -17.44476        -0.85632
   C       -1.35963         3.30603         0.08826
   H       -2.78295         0.77268        -0.05578
   H       -2.57995        -1.82725         0.09005
   H       -0.98993        -2.57945         0.22790
   H       -2.21758        -1.57105        -2.41774
   H       -2.11421        -3.27410        -1.90329
   H       -0.62764        -2.34891        -2.24600
   H        4.08912        -2.84701        -1.69745
   H        3.35689        -0.07814        -2.65346
   H        1.60065         0.05118        -2.60251
   H        3.17569        -2.27643        -3.90851
   H        2.36021        -0.95164        -4.76861
   H        1.40560        -2.15056        -3.85547
   H        9.29742        -8.67977         1.81846
   H        7.29765        -5.51318         2.99427
   H        8.96564        -5.86935         2.55186
   H        7.34433        -7.40237         4.68995
   H        8.64323        -6.22250         4.99683
   H        9.01507        -7.78018         4.22449
   H       13.14627       -15.34214         0.01423
   H       12.17230       -12.17301         1.13774
   H       12.34233       -11.66021        -0.52616
   H       14.25438       -13.56964         0.98340
   H       14.57514       -11.88418         0.54384
   H       14.43914       -13.12707        -0.72687
   H        2.83511        -4.45393         2.75447
   H        5.15593        -7.53301         3.51663
   H        3.42121        -7.24456         3.62031
   H        5.57793        -5.43723         4.89530
   H        4.51919        -6.58638         5.75462
   H        3.83030        -5.14364         4.97985
   H        7.13089       -10.41089        -2.13711
   H        7.51130       -13.44352        -3.05168
   H        9.24908       -13.47711        -3.29854
   H        7.35040       -11.25193        -4.30179
   H        8.15477       -12.49456        -5.28060
   H        9.11749       -11.22334        -4.48160
   H       12.38568       -17.74931        -0.61479
   H       11.11733       -17.80792        -1.86944
   H       10.68149       -17.96766        -0.15946
   H       -2.45703         3.35939         0.14281
   H       -1.03200         3.90624        -0.77725
   H       -0.94976         3.79047         0.98996
*
