# ORCA input file
# PDCBT-Cl_tetra.out: Geometry 255
! B3LYP def2-TZVP def2/J RIJCOSX Grid4 TightSCF

%maxcore 6000
%tddft
  maxdim 5
  nroots 50
  end
%pal
  nprocs 6
  end


* xyz 0 1
   C       -0.23668         0.17172        -0.87868
   C        1.24028         0.02536        -0.71401
   C        2.24375         0.95266        -0.90678
   C        3.54657         0.43071        -0.64705
   C        3.53973        -0.89571        -0.26339
   S        1.89569        -1.49481        -0.20347
   C        2.06330         2.35411        -1.33353
   O        0.76843         2.66779        -1.49461
   O        2.95805         3.14801        -1.51896
   C        0.53581         4.00474        -1.91306
   C        8.41480        -2.65756         0.75956
   C        9.18339        -1.50935         0.59527
   C       10.56732        -1.71979         0.74600
   S        9.46615        -4.01144         1.13921
   C        6.97287        -2.66837         0.60719
   C        5.98388        -3.65459         0.51533
   C        4.69483        -3.12851         0.19330
   C        4.65464        -1.75960         0.06571
   S        6.23470        -1.08459         0.38010
   C        6.11125        -5.12456         0.70017
   O        7.29889        -5.47245         1.22769
   O        5.24551        -5.93503         0.45073
   C        7.53695        -6.85415         1.47603
   C       14.64889        -4.34635         0.94656
   C       13.76361        -5.42925         0.94185
   C       12.40464        -5.06986         0.98821
   C       12.20104        -3.69646         1.03792
   S       13.73117        -2.84939         1.03048
   C       16.10040        -4.46234         0.86619
   C       17.15280        -3.55373         0.68641
   C       18.43276        -4.17476         0.59989
   C       18.41762        -5.54571         0.68991
   S       16.77564        -6.09851         0.95801
   C       17.14726        -2.08401         0.48987
   O       15.93417        -1.51166         0.57689
   O       18.15451        -1.44543         0.26361
   C       15.91187        -0.09860         0.35210
   C       10.92027        -3.04011         0.99550
   C       23.35681        -7.30959         0.14174
   C       24.11345        -6.39330         0.85091
   C       25.50576        -6.48480         0.58937
   S       24.41045        -8.30657        -0.84655
   C       21.90149        -7.33112         0.14374
   C       20.90895        -8.31169         0.03250
   C       19.59212        -7.80202         0.28060
   C       19.54631        -6.44020         0.51794
   S       21.16205        -5.77814         0.47608
   C       21.05623        -9.75075        -0.31639
   O       22.20011        -9.99786        -0.97459
   O       20.22982       -10.60729        -0.10054
   C       22.41936       -11.33433        -1.40728
   C       25.85513        -7.46602        -0.32715
  Cl       11.68029        -0.41131         0.51820
  Cl       26.65007        -5.45691         1.38819
   C       27.14680        -7.87544        -0.86273
   S       28.66970        -7.50287        -0.08312
   C       29.56359        -8.39109        -1.26462
   C       28.74670        -8.94524        -2.22063
   C       27.36984        -8.65267        -1.99450
   H       -0.49491         0.40458        -1.92504
   H       -0.61365         1.00802        -0.26806
   H       -0.76305        -0.74391        -0.58243
   H        4.44445         1.03591        -0.76702
   H        0.98784         4.72101        -1.20595
   H       -0.55169         4.12644        -1.94203
   H        0.96904         4.18044        -2.90800
   H        8.77590        -0.53747         0.32370
   H        3.83302        -3.78124         0.05524
   H        6.78328        -7.25892         2.15990
   H        8.53912        -6.90637         1.92887
   H        7.50474        -7.42895         0.54044
   H       14.09691        -6.46126         0.85970
   H       11.57945        -5.79148         0.93778
   H       19.32711        -3.58235         0.41975
   H       16.28370         0.14011        -0.65579
   H       16.54953         0.41825         1.08273
   H       14.86913         0.21842         0.45349
   H       23.68903        -5.66995         1.54572
   H       18.71468        -8.44573         0.23407
   H       21.60412       -11.65812        -2.06795
   H       22.47218       -12.01984        -0.54948
   H       23.36903       -11.31978        -1.95348
   H       30.64847        -8.45660        -1.18993
   H       29.11929        -9.53981        -3.05742
   H       26.55710        -8.99833        -2.63344
*
