# ORCA input file
# CPDT-4Cl.out: Geometry 103
! B3LYP def2-TZVP def2/J RIJCOSX Grid4 TightSCF

%maxcore 6000
%tddft
  maxdim 5
  nroots 3
  dosoc true
  end
%pal
  nprocs 6
  end


* xyz 0 1
   C       -0.57575         2.01495         1.56806
   C       -1.63919         2.35525         2.41426
   C       -1.58080         3.50067         3.23958
   C       -0.43707         4.30746         3.23674
   C        0.61909         3.95079         2.41249
   C        0.56491         2.81932         1.57077
   C        1.94214         4.62201         2.26629
   C        2.73638         3.73034         1.35969
   C        1.81397         2.76246         0.77645
   C        4.10419         3.85762         1.30100
   C        5.08317         2.90612         0.90263
   C        6.38165         3.17481         0.43648
   C        7.07001         2.02268         0.03556
   C        6.32059         0.85707         0.27332
   S        4.77190         1.16547         0.94235
   C        8.39493         1.67089        -0.64947
   C        8.27667         0.14835        -0.70435
   C        7.06119        -0.27946        -0.16322
   C        9.03152        -0.91045        -1.23774
   C        8.38983        -2.14586        -1.10492
   S        6.82955        -1.98278        -0.29876
   C        8.80459        -3.43495        -1.57563
   S       10.26741        -3.60426        -2.54570
   C        9.96871        -5.29677        -2.73325
   C        8.80557        -5.70978        -2.07522
   C        8.14736        -4.65895        -1.41914
   C       10.54718        -6.41772        -3.40268
   C        9.74597        -7.55668        -3.16031
   C        8.55523        -7.19935        -2.27415
   S       11.88036        -6.74985        -4.42109
   C       11.38381        -8.45918        -4.55660
   C       10.22655        -8.70183        -3.78667
   C       12.15476        -9.25753        -5.43116
   C       12.04198       -10.57541        -5.84800
   C       12.90823       -11.21885        -6.84312
   C       12.41502       -12.60683        -7.03326
   C       11.33174       -12.82034        -6.16269
   C       11.04241       -11.58327        -5.39883
   C       12.81388       -13.64066        -7.88555
   C       12.12825       -14.86148        -7.83068
   C       11.06334       -15.06653        -6.92704
   C       10.65406       -14.02620        -6.08710
  Cl       10.25007       -16.59199        -6.85112
  Cl       12.61171       -16.12926        -8.90510
   O       10.14403       -11.48036        -4.57847
   C       14.00059       -10.68767        -7.51174
   C       14.78857       -11.45121        -8.42930
   C       14.46715        -9.34550        -7.35171
   C        8.58529        -7.94970        -0.91822
   C        7.19965        -7.40528        -3.01001
   C        6.88549        -8.83620        -3.44390
   C        9.88607        -7.79491        -0.13216
   C        9.64223         2.12920         0.14243
   C        8.43392         2.20452        -2.11194
   C        8.39597         3.72131        -2.27976
   C        9.73385         1.60118         1.57198
   O        2.31173         5.63995         2.81252
  Cl       -3.04096         1.33928         2.42651
  Cl       -2.91082         3.92047         4.26505
   C        1.95871         2.10698        -0.43386
   C        1.00243         1.16039        -0.91226
   C        3.03246         2.39606        -1.33224
   N        3.87306         2.65770        -2.09058
   N        0.24256         0.36515        -1.28840
   N       15.44654       -12.06183        -9.16782
   N       14.86557        -8.25848        -7.24175
   H       -0.66849         1.12669         0.94723
   H       -0.37909         5.19605         3.86647
   H        4.48843         4.80925         1.68986
   H        6.75841         4.19507         0.36484
   H       10.00227        -0.80376        -1.72321
   H        7.21784        -4.75878        -0.85787
   H        9.80052        -9.70120        -3.74205
   H       12.97634        -8.70100        -5.88084
   H       13.63130       -13.54299        -8.59454
   H        9.82220       -14.15379        -5.39362
   H        8.39269        -9.01749        -1.10702
   H        7.73472        -7.58442        -0.31694
   H        7.19121        -6.74672        -3.89356
   H        6.40320        -7.03241        -2.34289
   H        7.61742        -9.21162        -4.17266
   H        5.89638        -8.87752        -3.92645
   H        6.86599        -9.53706        -2.59590
   H       10.74557        -8.17188        -0.70760
   H        9.83954        -8.36345         0.80819
   H       10.08698        -6.74247         0.12069
   H        9.65749         3.23062         0.15340
   H       10.53152         1.81676        -0.43271
   H        7.58591         1.76005        -2.65627
   H        9.34865         1.80068        -2.57836
   H        7.42396         4.13443        -1.97189
   H        8.54080         3.98668        -3.33811
   H        9.18346         4.23296        -1.70737
   H        8.84386         1.88043         2.15825
   H       10.61268         2.01972         2.08564
   H        9.82011         0.50353         1.59552
*
