# ORCA input file
# IDF-4F.out: Geometry 146
! B3LYP def2-TZVP def2/J RIJCOSX Grid4 TightSCF

%maxcore 6000
%tddft
  maxdim 5
  nroots 3
  dosoc true
  end
%pal
  nprocs 6
  end


* xyz 0 1
   C        0.16738        -2.76988        -2.20975
   C       -0.93897        -3.22446        -1.51506
   C       -2.10905        -3.89971        -2.08981
   C       -2.96583        -4.34760        -0.96043
   C       -2.38807        -3.90122         0.24107
   C       -1.12139        -3.18516        -0.03820
   C       -4.16313        -5.07683        -0.91175
   C       -4.72696        -5.32627         0.33827
   C       -4.14015        -4.85436         1.52682
   C       -2.95303        -4.13451         1.48868
   F       -4.74144        -5.11578         2.68356
   F       -5.85623        -6.02457         0.43423
   O       -0.40099        -2.69676         0.81536
   C       -2.42623        -4.06811        -3.42618
   C       -3.61199        -4.73700        -3.86625
   C       -1.63881        -3.56121        -4.50740
   N       -4.56620        -5.27079        -4.26086
   N       -1.03699        -3.16106        -5.41801
   C        1.32305        -2.09065        -1.77057
   O        2.27349        -1.86822        -2.78198
   C        3.27092        -1.19432        -2.21366
   C        3.03143        -0.94163        -0.87248
   C        1.79544        -1.52082        -0.57178
   C       11.09509         3.12701        -3.40628
   C       11.27545         3.96313        -2.32875
   C       10.41104         4.38336        -1.23248
   C       11.29502         4.90107        -0.15803
   C       12.60474         5.01758        -0.67037
   C       12.64927         4.49550        -2.06144
   C       11.02843         5.31460         1.15341
   C       12.08691         5.82237         1.90416
   C       13.38338         5.94737         1.37141
   C       13.65576         5.54418         0.07054
   F       14.34140         6.45705         2.13827
   F       11.89092         6.20979         3.16112
   O       13.61314         4.46099        -2.79813
   C        9.03155         4.50497        -1.26393
   C        8.24816         4.87742        -0.12833
   C        8.28527         4.36458        -2.47637
   N        7.56986         5.14337         0.77805
   N        7.67652         4.30309        -3.46370
   C        4.54567        -0.68468        -2.64813
   C        5.12914        -0.09355        -1.48468
   C        4.18774        -0.17740        -0.25762
   C        5.20447        -0.69112        -3.88910
   C        6.47025        -0.12908        -3.94517
   C        7.03986         0.47699        -2.78537
   C        6.37448         0.50731        -1.55160
   C        7.40259        -0.00223        -5.17686
   C        8.52737         0.82873        -4.56953
   C        8.27962         1.04490        -3.22723
   C        3.81277         1.26029         0.13416
   C        4.76347        -1.00336         0.89984
   C        7.96297        -1.35898        -5.62939
   C        6.65573         0.77533        -6.27237
   C        5.75701        -1.96728         0.68964
   C        6.20183        -2.78215         1.73264
   C        5.66521        -2.66940         3.02332
   C        4.65949        -1.71019         3.22301
   C        4.21306        -0.89289         2.18392
   C        2.67741         1.88244        -0.39596
   C        2.38654         3.21424        -0.09560
   C        3.21436         3.97294         0.74157
   C        4.36661         3.35137         1.25213
   C        4.65952         2.02077         0.95513
   C        6.16369         0.15933        -7.42682
   C        5.41816         0.89245        -8.35790
   C        5.13912         2.24913        -8.15770
   C        5.62650         2.85434        -6.98761
   C        6.37590         2.13608        -6.06158
   C        8.98285        -1.39155        -6.59569
   C        9.58124        -2.59179        -6.97297
   C        9.18305        -3.81424        -6.40285
   C        8.14881        -3.77948        -5.46306
   C        7.55300        -2.57522        -5.07539
   C        6.15781        -3.52506         4.17324
   C        6.45437        -4.98542         3.81801
   C        2.84280         5.39278         1.10993
   C        3.95655         6.42957         0.94685
   C        9.86461        -5.11413        -6.76771
   C        9.75076        -5.49732        -8.24661
   C        4.38694         3.06701        -9.17966
   C        5.32343         3.86501       -10.09875
   C        9.69422         1.55523        -4.86490
   C       10.07012         2.19699        -3.67384
   O        9.19257         1.83854        -2.66316
   H        0.19658        -2.95375        -3.28520
   H       -4.67366        -5.46342        -1.79116
   H       -2.48299        -3.76447         2.40092
   H        1.25752        -1.56977         0.36794
   H       11.91316         3.14879        -4.13630
   H       10.04416         5.25220         1.61603
   H       14.65783         5.64474        -0.34934
   H        4.73280        -1.12086        -4.77400
   H        6.82030         0.99412        -0.68400
   H        6.19315        -2.09189        -0.30273
   H        6.98461        -3.51502         1.52695
   H        4.21150        -1.59949         4.21441
   H        3.42695        -0.15939         2.37537
   H        2.00691         1.32505        -1.05142
   H        1.49045         3.67305        -0.52130
   H        5.05461         3.91421         1.88605
   H        5.55315         1.56315         1.38428
   H        6.36258        -0.89817        -7.60752
   H        5.03940         0.39327        -9.25441
   H        5.40581         3.90790        -6.79397
   H        6.73816         2.64681        -5.16659
   H        9.31913        -0.45975        -7.05583
   H       10.38664        -2.57768        -7.71286
   H        7.80787        -4.71045        -5.00201
   H        6.77200        -2.59881        -4.31675
   H        5.41185        -3.48332         4.98388
   H        7.07026        -3.06259         4.59339
   H        5.57266        -5.47416         3.37285
   H        6.74694        -5.55433         4.71419
   H        7.28140        -5.07697         3.09692
   H        2.49594         5.39902         2.15997
   H        1.96958         5.69357         0.50889
   H        4.84780         6.17898         1.54062
   H        3.60337         7.42133         1.27178
   H        4.28095         6.50743        -0.10260
   H        9.44725        -5.92040        -6.14384
   H       10.93251        -5.04292        -6.49272
   H        8.69917        -5.63647        -8.54251
   H       10.29155        -6.43457        -8.45092
   H       10.17947        -4.72089        -8.89916
   H        3.71101         3.76387        -8.65548
   H        3.74807         2.40601        -9.78864
   H        5.97234         4.53575        -9.51286
   H        4.75184         4.48071       -10.81189
   H        5.97943         3.19300       -10.67574
   H       10.20890         1.67708        -5.81527
*
