# ORCA input file
# IDIC.out: Geometry 18
! B3LYP def2-TZVP def2/J RIJCOSX Grid4 TightSCF

%maxcore 6000
%tddft
  maxdim 5
  nroots 3
  dosoc true
  end
%pal
  nprocs 6
  end


* xyz 0 1
   C        2.88191         1.08454        -0.59991
   C        2.82037        -0.33452        -0.73666
   C        1.58461        -0.96482        -0.75979
   C        0.43270        -0.16393        -0.69310
   C        0.49260         1.25982        -0.62596
   C        1.72839         1.88762        -0.55896
   C       -0.95897        -0.52598        -0.59248
   C       -1.76645         0.61186        -0.50140
   C       -0.91650         1.87205        -0.56645
   C        4.27625         1.42571        -0.46215
   C        5.07977         0.28107        -0.53139
   C        4.22450        -0.95861        -0.74531
   S       -1.83943        -1.98113        -0.42668
   C       -3.35239        -1.06830        -0.21208
   C       -3.11838         0.31614        -0.30161
   S        5.17547         2.85547        -0.18956
   C        6.69201         1.92493        -0.17157
   C        6.44226         0.55933        -0.38921
   C       -1.12412         2.75594         0.68761
   C       -1.26252         2.64808        -1.87311
   C       -0.54483         3.97696        -2.10097
   C       -0.98824         2.02354         2.02149
   C        4.57353        -1.58398        -2.12967
   C        4.35770        -1.96544         0.42906
   C        3.86962        -2.89059        -2.48912
   C        5.74614        -2.57111         0.63588
   C        7.86784         2.67212         0.09247
   C       -4.49036        -1.86273         0.08392
   C       -5.81356        -1.56233         0.33093
   C        9.19973         2.32301         0.19877
   C        9.80986         0.97762        -0.01182
   C       11.27586         1.16572         0.11652
   C       11.56406         2.51317         0.40747
   C       10.28659         3.25958         0.51772
   C       -6.47688        -0.22970         0.23396
   C       -7.92580        -0.47762         0.44094
   C       -8.15023        -1.84824         0.67663
   C       -6.84425        -2.55025         0.67937
   C       12.26784         0.20281        -0.01995
   C       13.59885         0.60562         0.12575
   C       13.90312         1.94644         0.39869
   C       12.90010         2.91163         0.54432
   C       -8.95831         0.45137         0.40953
   C      -10.26474        -0.00943         0.60122
   C      -10.50589        -1.37321         0.81736
   C       -9.46188        -2.30429         0.86220
   O        9.26441        -0.08904        -0.24697
   O       -5.97747         0.86257         0.01765
   C       -6.66776        -3.88054         1.01897
   C       10.18437         4.58481         0.90544
   C        8.94856         5.28437         1.08274
   C       11.31625         5.40396         1.21293
   C       -5.39588        -4.52981         1.11275
   C       -7.74803        -4.75323         1.36323
   N        7.96937         5.89277         1.23590
   N       12.19627         6.11499         1.47883
   N       -8.58788        -5.50338         1.65077
   N       -4.38661        -5.09971         1.20653
   H        1.49589        -2.05208        -0.79544
   H        1.81565         2.96911        -0.43756
   H       -3.93759         1.02367        -0.18835
   H        7.26807        -0.14615        -0.42518
   H       -2.12524         3.21484         0.61425
   H       -0.40681         3.59177         0.65049
   H       -2.35154         2.82479        -1.86345
   H       -1.06746         1.97244        -2.72209
   H       -0.74087         4.69857        -1.29320
   H       -0.90077         4.43681        -3.03624
   H        0.54490         3.85141        -2.19162
   H       -1.75217         1.23980         2.13577
   H       -1.10509         2.72647         2.86044
   H       -0.00289         1.54051         2.11895
   H        5.66406        -1.74222        -2.15933
   H        4.35756        -0.82316        -2.89747
   H        3.62617        -2.77384         0.26819
   H        4.03905        -1.44838         1.34936
   H        4.09244        -3.69209        -1.76831
   H        4.21022        -3.24041        -3.47612
   H        2.77653        -2.77439        -2.54306
   H        5.71969        -3.32475         1.43830
   H        6.48468        -1.81125         0.92699
   H        6.12098        -3.07291        -0.26949
   H        7.65360         3.72813         0.25624
   H       -4.24181        -2.92295         0.14218
   H       11.99112        -0.83000        -0.24189
   H       14.40655        -0.12211         0.02120
   H       14.94681         2.25196         0.50462
   H       13.17608         3.93997         0.76460
   H       -8.73147         1.50463         0.23064
   H      -11.10260         0.69076         0.57930
   H      -11.53039        -1.72452         0.96065
   H       -9.68810        -3.35294         1.04108
*
