# ORCA input file
# IDST-4F.out: Geometry 76
! B3LYP def2-TZVP def2/J RIJCOSX Grid4 TightSCF

%maxcore 6000
%tddft
  maxdim 5
  nroots 3
  dosoc true
  end
%pal
  nprocs 6
  end


* xyz 0 1
   C       -1.89673        -1.18007         0.39681
   C       -2.61718        -0.16143        -0.24005
   C       -2.17535         1.12414         0.13787
   C       -2.54363         2.56986        -0.18389
   C       -1.52296         3.32933         0.68106
   C       -0.70184         2.41928         1.40881
   C       -1.14041         1.09164         1.06226
   S       -0.68122        -0.50770         1.49626
   C        0.34476         2.85179         2.23568
   C        0.58930         4.21472         2.31787
   C        1.63317         4.94456         3.16820
   C        1.28594         6.39001         2.85784
   C        0.20911         6.45728         1.97291
   C       -0.23854         5.13248         1.60673
   C       -1.28655         4.69492         0.77491
   S       -0.25171         8.07639         1.61047
   C        1.03296         8.69901         2.65543
   C        1.77921         7.65085         3.21245
   C       -2.34295         2.89696        -1.68524
   C       -0.91861         2.67908        -2.19069
   C       -4.01224         2.81349         0.26714
   C       -4.54501         4.23950         0.15417
   C        1.43385         4.62315         4.67307
   C        0.01573         4.86839         5.18700
   C        3.09190         4.67039         2.70239
   C        3.59793         3.23328         2.79706
   C        1.26870        10.08774         2.85234
   C        0.42382        11.16836         2.77211
   C       -1.02764        11.30240         2.80182
   C       -1.35130        12.66723         2.31482
   C       -0.15103        13.39881         2.19124
   C        1.00610        12.52896         2.53356
   C       -2.57451        13.30152         2.05962
   C       -2.54830        14.63860         1.67097
   C       -1.34207        15.35265         1.54557
   C       -0.12532        14.73632         1.81262
   O        2.17694        12.84872         2.56504
   C       -1.92667        10.43585         3.40134
   C       -3.34003        10.63630         3.35278
   C       -1.50983         9.33177         4.20805
   F       -3.68566        15.27765         1.41095
   F       -1.39159        16.62651         1.16705
   N       -4.49281        10.77516         3.29693
   N       -1.19744         8.46520         4.91597
   C       -0.88434        -6.35950         0.66151
   C        0.36116        -6.73639         1.09990
   C        1.65010        -6.05658         1.13376
   C        2.43959        -6.67758         2.22391
   C        1.76866        -7.84085         2.65939
   C        0.49471        -7.99880         1.90023
   C        3.65741        -6.31363         2.81252
   C        4.14105        -7.11289         3.84558
   C        3.45329        -8.25932         4.28337
   C        2.26116        -8.64631         3.68139
   O       -0.29406        -8.91716         1.96805
   C        2.13278        -5.17273         0.18637
   C        3.41728        -4.55684         0.29245
   C        1.41518        -4.89045        -1.01780
   F        5.28020        -6.80080         4.45740
   F        3.96817        -8.95550         5.29246
   N        4.45123        -4.03352         0.38155
   N        0.85652        -4.69432        -2.01748
   C       -1.97188        -2.61036         0.26058
   S       -0.66294        -3.58179         0.88888
   C       -1.41540        -5.06963         0.37410
   C       -2.64367        -4.80223        -0.23023
   C       -2.95770        -3.42749        -0.32836
   S       -4.43082        -2.77087        -1.04304
   C       -5.01095        -4.15141        -2.09669
   C       -5.99510        -3.60185        -3.12806
   C       -6.60301        -4.70433        -3.99260
   H       -3.39852        -0.36842        -0.96925
   H        0.94055         2.12964         2.79585
   H       -1.88496         5.41750         0.21708
   H        2.61878         7.83807         3.88311
   H       -2.63758         3.94423        -1.85955
   H       -3.05116         2.28250        -2.26627
   H       -0.20261         3.30389        -1.63694
   H       -0.83542         2.94416        -3.25622
   H       -0.60472         1.62990        -2.07551
   H       -4.10235         2.47395         1.31229
   H       -4.64991         2.13736        -0.32725
   H       -3.98530         4.93451         0.79527
   H       -5.59532         4.27393         0.48297
   H       -4.51097         4.62336        -0.87738
   H        2.15708         5.22537         5.24814
   H        1.71278         3.57069         4.84362
   H       -0.28153         5.92443         5.09518
   H       -0.06496         4.58581         6.24830
   H       -0.71442         4.26256         4.63017
   H        3.74916         5.32716         3.29719
   H        3.18101         5.01676         1.65912
   H        3.55759         2.83670         3.82342
   H        4.64722         3.18421         2.46675
   H        3.02541         2.55655         2.14798
   H        2.31538        10.36186         3.04110
   H       -3.54074        12.80842         2.15200
   H        0.81307        15.28644         1.72665
   H       -1.61675        -7.17718         0.64648
   H        4.23098        -5.43647         2.51651
   H        1.73080        -9.53946         4.01500
   H       -3.28788        -5.60360        -0.58827
   H       -5.48984        -4.91763        -1.46652
   H       -4.13892        -4.60351        -2.59407
   H       -5.46799        -2.86755        -3.75988
   H       -6.79837        -3.04875        -2.61068
   H       -5.82353        -5.26957        -4.52989
   H       -7.28673        -4.28017        -4.74423
   H       -7.17658        -5.42279        -3.38401
*
