# ORCA input file
# IT-4F.out: Geometry 332
! B3LYP def2-TZVP def2/J RIJCOSX Grid4 TightSCF

%maxcore 6000
%tddft
  maxdim 5
  nroots 3
  dosoc true
  end
%pal
  nprocs 6
  end


* xyz 0 1
   C        3.62010         0.96214        -2.63976
   O        4.57428         1.67846        -2.39257
   C        2.28904         1.42035        -3.10588
   C        1.88402         2.72426        -3.36444
   C        0.57428         2.91779        -3.78755
   F        0.12273         4.13800        -4.06212
   C       -0.29658         1.82224        -3.93302
   F       -1.54375         2.05243        -4.33458
   C        0.11383         0.51754        -3.67479
   C        1.43620         0.31093        -3.26117
   C        2.19405        -0.92548        -2.94163
   C        1.67680        -2.20733        -3.02996
   C        2.43793        -3.38988        -2.76990
   N        3.04395        -4.36192        -2.56932
   C        0.32096        -2.47123        -3.39893
   N       -0.78020        -2.70328        -3.68971
   C        3.54191        -0.51464        -2.54062
   C        4.55853        -1.34155        -2.11184
   C        5.87130        -1.12175        -1.62041
   C        6.63164        -2.21948        -1.16888
   C        7.85836        -1.83542        -0.62997
   C        8.07775        -0.43424        -0.67488
   S        6.74097         0.41165        -1.38197
   C        9.30711        -0.06832        -0.08900
   C       10.03496         1.22225         0.26634
   C       10.53660         2.01232        -0.94208
   C       11.01940         3.31906        -0.76796
   C       11.58189         4.01784        -1.83172
   C       11.67833         3.44922        -3.11312
   C       12.28466         4.25073        -4.24663
   C       12.85979         3.43729        -5.40392
   C       11.18578         2.14946        -3.28204
   C       10.62425         1.44161        -2.21431
   C        9.05728         2.01362         1.15305
   C        8.15083         2.91072         0.57425
   C        7.13696         3.49542         1.33690
   C        6.98737         3.19382         2.69595
   C        5.91615         3.84626         3.53710
   C        6.48508         4.90952         4.48518
   C        7.89782         2.29118         3.26908
   C        8.91754         1.71363         2.51550
   C       11.25158         0.65602         1.03353
   C       11.17132        -0.76258         1.12861
   C        9.97504        -1.16914         0.42890
   S        9.17044        -2.69114         0.16955
   C       12.12377        -1.50899         1.83859
   C       13.17093        -0.81968         2.42299
   C       14.24768        -1.37455         3.36412
   C       13.64458        -1.67598         4.75531
   C       14.36323        -2.43482         5.69010
   C       13.86949        -2.63388         6.97931
   C       12.65013        -2.07263         7.38581
   C       12.07757        -2.35342         8.75371
   C       11.33896        -3.69938         8.80136
   C       11.94717        -1.29824         6.45530
   C       12.43272        -1.10276         5.16251
   C       14.99559        -2.55825         2.74966
   C       16.12738        -2.35410         1.94783
   C       16.82158        -3.43414         1.40258
   C       16.41650        -4.75571         1.64237
   C       17.20536        -5.91984         1.08924
   C       16.94899        -6.18952        -0.39881
   C       15.25866        -4.95249         2.40798
   C       14.55742        -3.87393         2.94987
   C       15.10853        -0.13718         3.54829
   C       14.52320         0.97242         2.95503
   C       13.30515         0.58969         2.26256
   C       12.33481         1.33725         1.57397
   S       15.39557         2.45947         3.23365
   C       16.59468         1.57452         4.17460
   C       16.28420         0.19320         4.24213
   S       17.45101        -0.67276         5.16283
   C       18.35426         0.82151         5.50063
   C       17.75383         1.92870         4.88099
   C       19.54104         0.65311         6.25977
   C       20.47478         1.48106         6.84435
   C       20.58476         2.89866         7.14256
   C       19.54862         3.79500         7.35283
   C       19.77037         5.18309         7.61084
   N       19.93927         6.31719         7.80077
   C       18.18930         3.38009         7.46671
   N       17.08006         3.05601         7.59289
   C       22.01889         3.18320         7.42139
   C       22.70634         4.38010         7.66405
   C       24.06060         4.30356         7.98196
   F       24.75355         5.41445         8.21519
   C       24.73590         3.07348         8.07457
   F       26.02374         3.07915         8.40686
   C       24.06415         1.88156         7.83016
   C       22.71572         1.96019         7.50046
   C       21.79023         0.84098         7.19630
   O       22.05309        -0.34434         7.19720
   H        2.56396         3.56827        -3.23791
   H       -0.60863        -0.28307        -3.81711
   H        4.32937        -2.40694        -2.10983
   H        6.25383        -3.24084        -1.22622
   H       10.94926         3.79719         0.21149
   H       11.96487         5.02848        -1.66514
   H       13.07245         4.89734        -3.82484
   H       11.51740         4.94608        -4.63636
   H       13.59766         2.70091        -5.04716
   H       13.36119         4.09631        -6.12931
   H       12.07716         2.88680        -5.94954
   H       11.23966         1.66545        -4.25884
   H       10.25775         0.42706        -2.37901
   H        8.22738         3.15314        -0.48702
   H        6.43732         4.18497         0.85624
   H        5.39030         3.07497         4.12704
   H        5.16090         4.30331         2.87698
   H        7.20702         4.46505         5.18948
   H        5.68722         5.38827         5.07476
   H        7.01341         5.69465         3.92145
   H        7.79737         2.02418         4.32493
   H        9.59891         1.00300         2.98762
   H       12.03064        -2.59168         1.94848
   H       15.31579        -2.88406         5.40645
   H       14.44708        -3.23758         7.68518
   H       11.38612        -1.54303         9.03468
   H       12.88823        -2.34598         9.50159
   H       10.50536        -3.71734         8.08153
   H       10.92566        -3.90049         9.80260
   H       12.01761        -4.52605         8.53777
   H       10.99843        -0.83911         6.74541
   H       11.85689        -0.49040         4.46870
   H       16.48271        -1.33881         1.75978
   H       17.71376        -3.24549         0.79877
   H       16.97086        -6.82456         1.67278
   H       18.28054        -5.72398         1.24265
   H       15.89377        -6.44864        -0.57972
   H       17.57163        -7.02144        -0.76305
   H       17.18365        -5.30330        -1.00968
   H       14.90948        -5.96978         2.60769
   H       13.67556        -4.06232         3.56459
   H       12.42810         2.41998         1.47891
   H       18.17099         2.93185         4.92063
   H       19.85534        -0.39593         6.35948
   H       22.24285         5.36411         7.62095
   H       24.57674         0.92122         7.90510
*
