# ORCA input file
# N3.out: Geometry 122
! B3LYP def2-TZVP def2/J RIJCOSX Grid4 TightSCF

%maxcore 6000
%tddft
  maxdim 5
  nroots 3
  dosoc true
  end
%pal
  nprocs 6
  end


* xyz 0 1
   C        4.16064         0.57998         0.19647
   O        3.95169         1.47636         0.99298
   C        5.00419         0.68465        -1.02740
   C        5.63591         1.81641        -1.53311
   C        6.39826         1.66902        -2.68852
   F        7.02127         2.70913        -3.23802
   C        6.52402         0.40991        -3.30386
   F        7.26970         0.31301        -4.40120
   C        5.89180        -0.72087        -2.79567
   C        5.11226        -0.57869        -1.64017
   C        4.30805        -1.55342        -0.86575
   C        4.08867        -2.87005        -1.23450
   C        3.24642        -3.77032        -0.50743
   N        2.57440        -4.52637         0.06606
   C        4.66603        -3.45334        -2.40533
   N        5.12307        -3.94745        -3.35272
   C        3.74420        -0.84479         0.28586
   C        3.11830        -1.45674         1.35501
   C        2.36273        -0.99906         2.46806
   S        2.32673        -2.20326         3.78823
   C        1.25908        -1.22643         4.71775
   C        0.92025        -0.04452         4.02114
   C        1.51824         0.10368         2.74984
   C        1.13340         1.21767         1.81627
   C        0.53809         0.73653         0.48607
   S       -0.23566         0.95990         4.91104
   C       -0.25452        -0.22109         6.19866
   C        0.59760        -1.31056         5.96040
   N        0.46334        -2.24255         6.97435
   C        0.91174        -3.61827         6.76983
   C        2.41880        -3.79280         6.90562
   C       -0.47363        -1.75209         7.88408
   C       -0.94769        -0.48895         7.40172
   C       -2.01718         0.19687         8.06419
   N       -2.57888         1.34286         7.70376
   S       -3.80965         1.63288         8.77244
   N       -3.64855         0.28544         9.72124
   C       -2.63683        -0.41449         9.22759
   C       -2.11480        -1.64841         9.73330
   C       -1.01462        -2.29976         9.09893
   N       -0.69241        -3.44746         9.83566
   C        0.63159        -4.06374         9.97014
   C        0.64480        -5.56267         9.70267
   C       -1.59646        -3.53595        10.88801
   C       -2.47114        -2.43957        10.85068
   S       -3.60806        -2.41437        12.17072
   C       -2.89794        -3.90748        12.79609
   C       -1.85110        -4.39609        11.98448
   S       -1.29145        -5.92708        12.56489
   C       -2.42712        -5.87584        13.93283
   C       -3.23214        -4.72357        13.90586
   C       -4.40755        -4.43745        14.79872
   C       -4.31845        -3.08883        15.52727
   C       -2.45509        -7.06404        14.72893
   C       -2.64792        -7.22800        16.08163
   C       -2.73327        -8.50490        16.79753
   C       -3.02975        -9.74384        16.26127
   C       -3.11269       -10.93126        17.05511
   N       -3.18340       -11.90267        17.68922
   C       -3.30551        -9.95330        14.87280
   N       -3.52867       -10.16275        13.75175
   C       -2.49092        -8.22739        18.23224
   C       -2.39639        -9.07514        19.34461
   C       -2.13129        -8.50036        20.58423
   F       -2.02184        -9.26886        21.66330
   C       -1.96806        -7.11123        20.74016
   F       -1.71885        -6.63360        21.95580
   C       -2.06425        -6.26274        19.64351
   C       -2.32476        -6.83965        18.40447
   C       -2.45608        -6.14727        17.09530
   O       -2.33874        -4.95378        16.90644
   H        5.53875         2.78750        -1.04484
   H        6.03247        -1.66375        -3.31961
   H        3.24668        -2.54110         1.38153
   H        2.02424         1.83129         1.61820
   H        0.40164         1.85688         2.33529
   H        1.26998         0.16628        -0.10405
   H        0.21629         1.59744        -0.11922
   H       -0.33617         0.08804         0.65018
   H        0.58937        -3.92485         5.76081
   H        0.36180        -4.25727         7.46469
   H        2.77608        -3.50478         7.90561
   H        2.96146        -3.17453         6.17754
   H        2.69656        -4.84182         6.72098
   H        0.98698        -3.86253        10.99517
   H        1.31887        -3.53087         9.30649
   H       -0.03788        -6.10102        10.37243
   H        1.65519        -5.96548         9.87205
   H        0.33813        -5.80307         8.67408
   H       -4.53266        -5.24953        15.52568
   H       -5.30759        -4.45037        14.15614
   H       -5.20921        -2.93479        16.15578
   H       -4.26115        -2.24693        14.81985
   H       -3.43112        -3.06147        16.17127
   H       -2.21742        -7.96948        14.16290
   H       -2.51503       -10.15579        19.29278
   H       -1.93149        -5.18497        19.75360
*
