# ORCA input file
# p-IO2.out: Geometry 282
! B3LYP def2-TZVP def2/J RIJCOSX Grid4 TightSCF

%maxcore 6000
%tddft
  maxdim 5
  nroots 3
  dosoc true
  end
%pal
  nprocs 6
  end


* xyz 0 1
   C        0.16788        -5.59966         0.31677
   O        0.15996        -5.02111        -0.75897
   C       -0.96762        -6.40277         0.82509
   C       -2.16832        -6.65253         0.17180
   C       -3.08343        -7.47511         0.81537
   C       -2.77904        -8.03656         2.06798
   C       -1.58449        -7.76294         2.73024
   C       -0.66189        -6.91959         2.09603
   C        0.67071        -6.40426         2.50202
   C        1.20794        -6.55507         3.76963
   C        2.44088        -5.96471         4.19051
   N        3.43931        -5.49828         4.56094
   C        0.53726        -7.27104         4.81051
   N        0.00607        -7.84430         5.67094
   C        1.23009        -5.67028         1.35888
   F       -4.25971        -7.75424         0.26170
   F       -3.67605        -8.84997         2.61813
   C       23.26312        -3.71861        -4.39634
   O       23.04569        -3.71528        -3.20143
   C       24.57700        -3.87905        -5.06667
   C       25.82250        -4.06475        -4.47501
   C       26.91966        -4.20704        -5.31667
   C       26.75692        -4.15378        -6.71225
   C       25.50869        -3.97513        -7.30241
   C       24.39505        -3.83973        -6.46368
   C       22.93795        -3.74077        -6.75999
   C       22.38337        -4.01095        -8.00440
   C       21.00605        -4.31850        -8.20018
   N       19.89710        -4.60493        -8.40141
   C       23.17402        -4.13606        -9.18954
   N       23.80125        -4.22000       -10.16497
   C       22.25497        -3.53021        -5.49627
   F       28.14118        -4.40088        -4.82578
   F       27.83611        -4.28995        -7.47748
   C        2.52827        -5.18876         1.28269
   C        3.22513        -4.50706         0.25517
   C        2.82994        -4.05711        -1.00862
   C        3.85419        -3.41659        -1.72183
   C        5.07736        -3.37184        -1.02025
   S        4.92204        -4.12842         0.53385
   C        6.34570        -2.85636        -1.45334
   S        6.87061        -3.00778        -3.13822
   C        8.45198        -2.45427        -2.71469
   C        8.54498        -2.11550        -1.37005
   C        7.36578        -2.35257        -0.64717
   C        9.72487        -2.25112        -3.38304
   C       10.63811        -1.79313        -2.38858
   C        9.89221        -1.47314        -1.08007
   C       10.14081        -2.44720        -4.70947
   C       11.48723        -2.26880        -5.00076
   C       12.41062        -1.90877        -3.98252
   C       11.98357        -1.62975        -2.67493
   C       12.19062        -2.34075        -6.37385
   C       13.64799        -2.12625        -5.95988
   C       13.72033        -1.89308        -4.59294
   C       14.90963        -2.13554        -6.59199
   C       15.95112        -1.94937        -5.68321
   S       15.34064        -1.69559        -4.04154
   C       17.36905        -2.06858        -5.88865
   S       18.37843        -2.73652        -4.64956
   C       19.80988        -2.65980        -5.66382
   C       19.49307        -2.09464        -6.90550
   C       18.12694        -1.77206        -7.04054
   C       20.99247        -3.16329        -5.07369
   O        3.75375        -2.85921        -2.94303
   C        2.50264        -2.98016        -3.63216
   C        1.42114        -2.02452        -3.11310
   C        1.76244        -0.56525        -3.42043
   C        0.05112        -2.42565        -3.66861
   C        9.74573         0.07028        -1.08648
   C       10.52060        -2.02248         0.19737
   C       12.04014        -3.68140        -7.09454
   C       11.62059        -1.13898        -7.15233
   O       17.52536        -1.23156        -8.11445
   C       18.33231        -0.88310        -9.23899
   C       17.46106        -0.19271       -10.28130
   C       16.80374         1.07062        -9.71547
   C       18.29810         0.11003       -11.52835
   C        8.63599         0.69109        -1.67467
   C        8.57882         2.07874        -1.81382
   C        9.62182         2.89869        -1.36902
   C       10.72559         2.27468        -0.76262
   C       10.78990         0.88759        -0.62673
   C       11.39753        -3.11282         0.18178
   C       11.91181        -3.63957         1.37032
   C       11.55948        -3.10456         2.61583
   C       10.66263        -2.02291         2.62754
   C       10.15402        -1.49054         1.44410
   C       12.49567        -3.81840        -8.41636
   C       12.42539        -5.04306        -9.07661
   C       11.88980        -6.18088        -8.44878
   C       11.44733        -6.04162        -7.12926
   C       11.52509        -4.81637        -6.46038
   C       10.51161        -1.27500        -7.99658
   C        9.86150        -0.14847        -8.50794
   C       10.28595         1.14768        -8.18139
   C       11.42458         1.27395        -7.37201
   C       12.08259         0.15363        -6.86912
   C       12.11547        -3.66800         3.89975
   C        9.54888         4.39550        -1.52791
   C       11.78747        -7.49533        -9.18022
   C        9.51942         2.36431        -8.63214
   H       -2.38295        -6.22141        -0.80682
   H       -1.42111        -8.21914         3.70381
   H       25.93672        -4.11004        -3.39027
   H       25.45490        -3.95545        -8.38896
   H        3.14834        -5.38039         2.15912
   H        1.81052        -4.20587        -1.34655
   H        7.23791        -2.16665         0.41972
   H        9.43165        -2.74318        -5.48454
   H       12.68810        -1.29912        -1.90948
   H       15.09550        -2.32966        -7.64695
   H       20.23888        -1.89947        -7.66979
   H       20.92363        -3.27159        -3.98134
   H        2.15860        -4.02698        -3.57361
   H        2.73991        -2.75881        -4.68398
   H        1.37983        -2.14073        -2.01766
   H        1.69829        -0.36641        -4.50408
   H        2.78027        -0.31648        -3.08270
   H        1.06246         0.11695        -2.91520
   H        0.03447        -2.38134        -4.77152
   H       -0.72852        -1.74173        -3.30047
   H       -0.22749        -3.44394        -3.35409
   H       18.79798        -1.79556        -9.65090
   H       19.14239        -0.20307        -8.91287
   H       16.66607        -0.90803       -10.55817
   H       17.57165         1.79694        -9.39884
   H       16.17622         0.83867        -8.84372
   H       16.17259         1.55966       -10.47429
   H       19.11693         0.81131       -11.29588
   H       17.67861         0.57715       -12.30911
   H       18.74657        -0.80226       -11.95405
   H        7.80855         0.09195        -2.05233
   H        7.70387         2.53153        -2.28880
   H       11.55641         2.88541        -0.39832
   H       11.66683         0.43356        -0.16032
   H       11.68924        -3.56147        -0.76855
   H       12.60179        -4.48642         1.32641
   H       10.35921        -1.58266         3.58188
   H        9.47352        -0.63709         1.48538
   H       12.90029        -2.94879        -8.93864
   H       12.79562        -5.12113       -10.10254
   H       11.03015        -6.90725        -6.60786
   H       11.17468        -4.75309        -5.43055
   H       10.13932        -2.27016        -8.24620
   H        8.99023        -0.28299        -9.15508
   H       11.79347         2.26989        -7.11087
   H       12.95010         0.28809        -6.22117
   H       12.86054        -4.45298         3.70632
   H       11.31675        -4.10873         4.52032
   H       12.59900        -2.88388         4.50570
   H        8.78489         4.68086        -2.26582
   H       10.51251         4.81506        -1.85766
   H        9.28501         4.88912        -0.57662
   H       12.76725        -7.81752        -9.56928
   H       11.11093        -7.41807       -10.04724
   H       11.40409        -8.29103        -8.52497
   H        9.08252         2.22949        -9.63391
   H       10.15896         3.25933        -8.64935
   H        8.68404         2.57428        -7.94222
*
