# ORCA input file
# Y15.out: Geometry 34
! B3LYP def2-TZVP def2/J RIJCOSX Grid4 TightSCF

%maxcore 6000
%tddft
  maxdim 5
  nroots 3
  dosoc true
  end
%pal
  nprocs 6
  end


* xyz 0 1
   C        6.50516         4.64265        -0.80217
   O        7.24309         3.73449        -1.14794
   C        6.63929         6.06734        -1.19586
   C        7.61541         6.64225        -1.99343
   C        7.55750         8.02116        -2.22366
  Cl        8.77433         8.76595        -3.20340
   C        6.51537         8.78472        -1.65479
  Cl        6.42279        10.49065        -1.94003
   C        5.53438         8.19027        -0.84900
   C        5.59695         6.81504        -0.61412
   C        4.73801         5.90186         0.18353
   C        3.61689         6.30086         0.89679
   C        2.79674         5.41120         1.65901
   N        2.11018         4.71151         2.28555
   C        3.16779         7.65706         0.94724
   N        2.77823         8.75064         1.00938
   C        5.31171         4.56286         0.06860
   C        4.82398         3.41614         0.66993
   C        5.25717         2.07732         0.74575
   S        6.75274         1.38922         0.06283
   C        6.38285        -0.14574         0.77014
   C        5.14860        -0.13549         1.46126
   C        4.51125         1.10892         1.47592
   C        3.19512         1.36233         2.15824
   C        1.99664         1.33727         1.20061
   S        4.74135        -1.69201         2.19556
   C        6.24872        -2.33739         1.59265
   C        7.00805        -1.40502         0.86994
   N        8.19680        -1.97689         0.45221
   C        8.87030        -1.39514        -0.71056
   C        8.22181        -1.76728        -2.04010
   C        8.21652        -3.29927         0.92456
   C        6.98211        -3.54115         1.62251
   C        6.71145        -4.82554         2.17655
   N        5.65010        -5.29708         2.84993
   N        5.98138        -6.55872         3.09626
   C        5.05301        -7.48067         3.73506
   C        4.23099        -8.26355         2.71788
   N        7.15681        -6.97025         2.63679
   C        7.65613        -5.87559         2.04138
   C        8.91465        -5.63179         1.41922
   C        9.22016        -4.32693         0.89258
   N       10.55794        -4.33681         0.47808
   C       11.46563        -3.24645         0.13357
   C       11.78458        -3.17044        -1.35857
   C       11.06463        -5.60036         0.70854
   C       10.07523        -6.41727         1.27745
   S       10.63841        -8.02263         1.66909
   C       12.24628        -7.57516         1.08641
   C       12.30930        -6.25307         0.59386
   S       13.88603        -5.89507         0.00068
   C       14.48408        -7.51960         0.46673
   C       13.44536        -8.30952         1.02212
   C       13.46973        -9.76590         1.38397
   C       13.83824       -10.68529         0.21662
   C       15.84319        -7.71808         0.10496
   C       16.83113        -8.58202         0.54375
   C       18.15430        -8.75055        -0.07026
   C       18.62664        -8.19857        -1.24927
   C       19.95480        -8.41946        -1.73192
   N       21.03036        -8.57865        -2.14317
   C       17.85092        -7.35329        -2.10319
   N       17.24935        -6.66286        -2.81956
   C       18.93707        -9.66322         0.80112
   C       20.23852       -10.16612         0.70972
   C       20.69653       -11.03916         1.70640
  Cl       22.31133       -11.65489         1.59234
   C       19.86916       -11.41477         2.78696
  Cl       20.43442       -12.50915         4.00113
   C       18.57545       -10.89581         2.88850
   C       18.13660       -10.03423         1.89667
   C       16.82765        -9.34103         1.82210
   O       15.99066        -9.33762         2.70718
   H        8.41093         6.03636        -2.42923
   H        4.75793         8.82600        -0.43192
   H        3.90535         3.55182         1.23386
   H        3.21217         2.33001         2.68151
   H        3.05976         0.59699         2.93859
   H        2.08774         2.11975         0.43224
   H        1.06579         1.52110         1.75727
   H        1.91655         0.36710         0.68625
   H        9.91841        -1.68523        -0.70954
   H        8.85970        -0.30422        -0.56766
   H        8.22011        -2.85862        -2.18515
   H        8.78192        -1.30648        -2.86814
   H        7.18375        -1.40663        -2.09056
   H        4.41234        -6.86981         4.38514
   H        5.65666        -8.15248         4.36136
   H        3.63719        -7.58154         2.09001
   H        3.54276        -8.94636         3.23977
   H        4.88742        -8.85950         2.06580
   H       12.39461        -3.41023         0.70157
   H       11.04539        -2.31408         0.52737
   H       12.27675        -4.09335        -1.69920
   H       12.46812        -2.33236        -1.56316
   H       10.87778        -3.03440        -1.96491
   H       12.47095       -10.03960         1.75931
   H       14.17270        -9.91376         2.21503
   H       13.14993       -10.54752        -0.63134
   H       13.78314       -11.73720         0.53734
   H       14.85866       -10.49262        -0.14743
   H       16.16218        -7.01283        -0.66559
   H       20.91840        -9.90667        -0.09753
   H       17.92738       -11.16479         3.72348
*
