# ORCA input file
# ZY-4Cl.out
! CAM-B3LYP def2-SVP def2/J RIJCOSX Grid4 TightSCF
%maxcore 5000
%tddft
    Mode sTDDFT
    Ethresh 5.0
    maxcore 5000
end
* xyz 0 1
  C      3.687621    2.616547    0.377078
  O      4.611661    2.515914   -0.412796
  C      2.363075    3.267852    0.096792
  C      1.893147    3.825913   -1.084823
  C      0.601695    4.368387   -1.092540
  Cl    -0.012408    5.047534   -2.564449
  C     -0.193673    4.362348    0.078478
  Cl    -1.783816    5.053449    0.069419
  C      0.291916    3.794800    1.262559
  C      1.567112    3.246662    1.251461
  C      2.304327    2.548044    2.350077
  O      1.905414    2.351727    3.482565
  C      3.610234    2.138529    1.769320
  C      4.472642    1.376990    2.509574
  C      5.759574    0.833036    2.281950
  S      6.780400    1.145207    0.857045
  C      8.047909    0.169067    1.532384
  C      7.677126   -0.378655    2.780529
  C      6.393232   -0.016302    3.215881
  C      5.758052   -0.582187    4.456655
  C      5.013671   -1.894975    4.158701
  S      8.916897   -1.401877    3.507563
  C      9.936295   -1.086897    2.131017
  C      9.348536   -0.256583    1.164527
  N     10.237285   -0.067879    0.114801
  C     10.101207    1.108711   -0.747071
  C     10.240161    2.427951    0.010580
  C     11.396527   -0.800306    0.399513
  C     11.228473   -1.419879    1.677647
  C     12.271924   -2.183727    2.289807
  N     12.231530   -2.803352    3.460922
  S     13.720193   -3.496814    3.686563
  N     14.442676   -3.014774    2.275758
  C     13.544017   -2.304560    1.607821
  C     13.679928   -1.754002    0.294088
  C     12.599891   -1.067067   -0.349883
  N     12.959588   -0.858949   -1.683515
  C     12.123515   -0.513661   -2.831183
  C     12.439323    0.861409   -3.421038
  C     14.234301   -1.368142   -1.870969
  C     14.701518   -1.908485   -0.662718
  S     16.250211   -2.696097   -0.794701
  C     16.248937   -2.336302   -2.523469
  C     15.115075   -1.614677   -2.953122
  S     15.158655   -1.309226   -4.660709
  C     16.693671   -2.203147   -4.800373
  C     17.139468   -2.687259   -3.550634
  C     18.409384   -3.450127   -3.297551
  C     19.566705   -2.532439   -2.878669
  C     17.367922   -2.472677   -6.016612
  C     17.133767   -2.130620   -7.321860
  C     17.989321   -2.687395   -8.402100
  O     18.945571   -3.427825   -8.275780
  C     17.424445   -2.162108   -9.686503
  C     17.820129   -2.418798  -10.992575
  C     17.109604   -1.800340  -12.029283
  Cl    17.564284   -2.122544  -13.671174
  C     16.032027   -0.928367  -11.746397
  Cl    15.172054   -0.160549  -13.041258
  C     15.642803   -0.679137  -10.424254
  C     16.343907   -1.313407   -9.406098
  C     16.106672   -1.263653   -7.925398
  O     15.226728   -0.624728   -7.371817
  H      2.503628    3.838677   -1.988825
  H     -0.321858    3.779081    2.164268
  H      4.065147    1.135896    3.497954
  H      5.068951    0.143996    4.912339
  H      6.549328   -0.764301    5.201621
  H      4.188608   -1.723326    3.450752
  H      4.592520   -2.329208    5.078523
  H      5.693377   -2.633937    3.707210
  H      9.122052    1.050074   -1.249654
  H     10.859560    1.050975   -1.526616
  H     11.219089    2.491621    0.510196
  H      9.455173    2.546774    0.771743
  H     10.151403    3.267809   -0.696116
  H     11.074335   -0.604467   -2.523573
  H     12.283731   -1.289118   -3.597963
  H     11.719135    1.107542   -4.215154
  H     13.445215    0.881135   -3.865664
  H     12.398751    1.650899   -2.655283
  H     18.695088   -4.035731   -4.183403
  H     18.211241   -4.182444   -2.497468
  H     19.827933   -1.835662   -3.689296
  H     20.460868   -3.123754   -2.628748
  H     19.293384   -1.933362   -1.996347
  H     18.252984   -3.111644   -5.905385
  H     18.656443   -3.083841  -11.211689
  H     14.806504   -0.013623  -10.207748
*
